p cnf 627 2202
1 2 427 0
-1 -2 -427 0
1 3 428 0
-1 -3 -428 0
1 6 430 0
-1 -6 -430 0
1 10 435 0
-1 -10 -435 0
1 14 436 0
-1 -14 -436 0
1 15 437 0
-1 -15 -437 0
2 4 438 0
-2 -4 -438 0
2 5 439 0
-2 -5 -439 0
2 13 444 0
-2 -13 -444 0
2 20 446 0
-2 -20 -446 0
3 5 447 0
-3 -5 -447 0
3 7 449 0
-3 -7 -449 0
3 11 453 0
-3 -11 -453 0
3 12 454 0
-3 -12 -454 0
3 19 456 0
-3 -19 -456 0
4 7 459 0
-4 -7 -459 0
4 9 460 0
-4 -9 -460 0
4 12 461 0
-4 -12 -461 0
4 18 462 0
-4 -18 -462 0
4 19 463 0
-4 -19 -463 0
5 6 466 0
-5 -6 -466 0
5 9 469 0
-5 -9 -469 0
5 10 470 0
-5 -10 -470 0
5 17 471 0
-5 -17 -471 0
5 18 472 0
-5 -18 -472 0
6 7 492 0
-6 -7 -492 0
6 12 494 0
-6 -12 -494 0
6 16 496 0
-6 -16 -496 0
7 13 522 0
-7 -13 -522 0
7 15 523 0
-7 -15 -523 0
7 17 524 0
-7 -17 -524 0
8 10 551 0
-8 -10 -551 0
8 14 552 0
-8 -14 -552 0
8 18 554 0
-8 -18 -554 0
8 20 555 0
-8 -20 -555 0
9 11 588 0
-9 -11 -588 0
9 16 589 0
-9 -16 -589 0
9 20 590 0
-9 -20 -590 0
10 11 591 0
-10 -11 -591 0
10 12 592 0
-10 -12 -592 0
10 13 593 0
-10 -13 -593 0
10 19 594 0
-10 -19 -594 0
11 14 596 0
-11 -14 -596 0
11 17 597 0
-11 -17 -597 0
11 18 598 0
-11 -18 -598 0
12 14 600 0
-12 -14 -600 0
12 20 602 0
-12 -20 -602 0
13 14 604 0
-13 -14 -604 0
14 19 610 0
-14 -19 -610 0
15 18 613 0
-15 -18 -613 0
15 19 614 0
-15 -19 -614 0
16 17 621 0
-16 -17 -621 0
16 18 622 0
-16 -18 -622 0
16 19 623 0
-16 -19 -623 0
17 20 626 0
-17 -20 -626 0
19 20 627 0
-19 -20 -627 0
21 22 224 0
-21 -22 -224 0
21 23 226 0
-21 -23 -226 0
21 28 232 0
-21 -28 -232 0
21 31 234 0
-21 -31 -234 0
21 35 238 0
-21 -35 -238 0
21 36 239 0
-21 -36 -239 0
22 27 312 0
-22 -27 -312 0
22 33 314 0
-22 -33 -314 0
22 40 318 0
-22 -40 -318 0
23 24 333 0
-23 -24 -333 0
23 25 334 0
-23 -25 -334 0
23 26 335 0
-23 -26 -335 0
23 37 340 0
-23 -37 -340 0
24 30 397 0
-24 -30 -397 0
24 32 398 0
-24 -32 -398 0
24 34 400 0
-24 -34 -400 0
24 36 402 0
-24 -36 -402 0
24 39 404 0
-24 -39 -404 0
24 40 406 0
-24 -40 -406 0
25 27 407 0
-25 -27 -407 0
25 31 409 0
-25 -31 -409 0
25 33 410 0
-25 -33 -410 0
25 34 411 0
-25 -34 -411 0
25 35 413 0
-25 -35 -413 0
26 27 458 0
-26 -27 -458 0
26 28 459 0
-26 -28 -459 0
26 36 461 0
-26 -36 -461 0
26 39 462 0
-26 -39 -462 0
27 29 482 0
-27 -29 -482 0
27 37 485 0
-27 -37 -485 0
27 38 486 0
-27 -38 -486 0
28 29 516 0
-28 -29 -516 0
28 30 518 0
-28 -30 -518 0
28 32 520 0
-28 -32 -520 0
28 34 521 0
-28 -34 -521 0
28 40 525 0
-28 -40 -525 0
29 36 530 0
-29 -36 -530 0
29 39 534 0
-29 -39 -534 0
30 31 542 0
-30 -31 -542 0
30 33 544 0
-30 -33 -544 0
30 37 547 0
-30 -37 -547 0
31 32 549 0
-31 -32 -549 0
31 38 552 0
-31 -38 -552 0
31 39 554 0
-31 -39 -554 0
32 35 561 0
-32 -35 -561 0
33 36 566 0
-33 -36 -566 0
33 39 567 0
-33 -39 -567 0
34 38 576 0
-34 -38 -576 0
35 37 595 0
-35 -37 -595 0
35 38 596 0
-35 -38 -596 0
35 39 598 0
-35 -39 -598 0
36 37 599 0
-36 -37 -599 0
36 38 600 0
-36 -38 -600 0
37 40 609 0
-37 -40 -609 0
38 40 611 0
-38 -40 -611 0
41 43 137 0
-41 -43 -137 0
41 44 138 0
-41 -44 -138 0
41 45 139 0
-41 -45 -139 0
41 51 142 0
-41 -51 -142 0
41 53 145 0
-41 -53 -145 0
41 58 153 0
-41 -58 -153 0
42 43 190 0
-42 -43 -190 0
42 45 191 0
-42 -45 -191 0
42 48 192 0
-42 -48 -192 0
42 54 200 0
-42 -54 -200 0
42 58 207 0
-42 -58 -207 0
43 49 209 0
-43 -49 -209 0
43 50 211 0
-43 -50 -211 0
43 55 217 0
-43 -55 -217 0
43 56 218 0
-43 -56 -218 0
43 59 222 0
-43 -59 -222 0
44 47 225 0
-44 -47 -225 0
44 48 227 0
-44 -48 -227 0
44 54 232 0
-44 -54 -232 0
45 47 260 0
-45 -47 -260 0
45 50 263 0
-45 -50 -263 0
45 52 266 0
-45 -52 -266 0
45 55 271 0
-45 -55 -271 0
45 59 275 0
-45 -59 -275 0
46 49 291 0
-46 -49 -291 0
46 53 298 0
-46 -53 -298 0
46 55 303 0
-46 -55 -303 0
47 49 321 0
-47 -49 -321 0
47 53 325 0
-47 -53 -325 0
47 56 327 0
-47 -56 -327 0
47 58 331 0
-47 -58 -331 0
48 49 345 0
-48 -49 -345 0
48 50 346 0
-48 -50 -346 0
48 55 353 0
-48 -55 -353 0
49 51 383 0
-49 -51 -383 0
49 54 388 0
-49 -54 -388 0
50 51 417 0
-50 -51 -417 0
50 53 421 0
-50 -53 -421 0
50 58 426 0
-50 -58 -426 0
51 52 441 0
-51 -52 -441 0
51 55 443 0
-51 -55 -443 0
51 59 445 0
-51 -59 -445 0
52 56 503 0
-52 -56 -503 0
52 58 507 0
-52 -58 -507 0
53 57 513 0
-53 -57 -513 0
54 55 521 0
-54 -55 -521 0
54 59 525 0
-54 -59 -525 0
55 57 578 0
-55 -57 -578 0
57 58 617 0
-57 -58 -617 0
57 59 619 0
-57 -59 -619 0
60 63 140 0
-60 -63 -140 0
60 66 144 0
-60 -66 -144 0
60 71 146 0
-60 -71 -146 0
60 75 151 0
-60 -75 -151 0
60 77 152 0
-60 -77 -152 0
61 62 174 0
-61 -62 -174 0
61 67 179 0
-61 -67 -179 0
61 68 181 0
-61 -68 -181 0
61 73 185 0
-61 -73 -185 0
61 75 186 0
-61 -75 -186 0
61 76 187 0
-61 -76 -187 0
62 65 310 0
-62 -65 -310 0
62 71 313 0
-62 -71 -313 0
62 77 317 0
-62 -77 -317 0
63 64 334 0
-63 -64 -334 0
63 67 336 0
-63 -67 -336 0
63 73 338 0
-63 -73 -338 0
63 76 341 0
-63 -76 -341 0
64 70 409 0
-64 -70 -409 0
64 74 413 0
-64 -74 -413 0
64 77 415 0
-64 -77 -415 0
65 68 430 0
-65 -68 -430 0
65 69 432 0
-65 -69 -432 0
65 75 436 0
-65 -75 -436 0
65 76 437 0
-65 -76 -437 0
66 67 464 0
-66 -67 -464 0
66 68 466 0
-66 -68 -466 0
66 72 468 0
-66 -72 -468 0
66 73 469 0
-66 -73 -469 0
67 71 475 0
-67 -71 -475 0
67 74 477 0
-67 -74 -477 0
67 77 480 0
-67 -77 -480 0
68 77 496 0
-68 -77 -496 0
69 70 536 0
-69 -70 -536 0
69 74 539 0
-69 -74 -539 0
69 77 540 0
-69 -77 -540 0
70 71 548 0
-70 -71 -548 0
70 72 549 0
-70 -72 -549 0
70 75 552 0
-70 -75 -552 0
71 73 557 0
-71 -73 -557 0
71 76 558 0
-71 -76 -558 0
72 74 561 0
-72 -74 -561 0
72 76 562 0
-72 -76 -562 0
73 74 588 0
-73 -74 -588 0
73 77 589 0
-73 -77 -589 0
74 75 596 0
-74 -75 -596 0
78 83 158 0
-78 -83 -158 0
78 85 159 0
-78 -85 -159 0
78 88 163 0
-78 -88 -163 0
78 93 168 0
-78 -93 -168 0
78 95 170 0
-78 -95 -170 0
79 83 195 0
-79 -83 -195 0
79 84 196 0
-79 -84 -196 0
79 92 204 0
-79 -92 -204 0
79 94 206 0
-79 -94 -206 0
80 82 226 0
-80 -82 -226 0
80 88 233 0
-80 -88 -233 0
80 89 235 0
-80 -89 -235 0
80 92 239 0
-80 -92 -239 0
80 94 240 0
-80 -94 -240 0
81 83 244 0
-81 -83 -244 0
81 84 246 0
-81 -84 -246 0
81 89 251 0
-81 -89 -251 0
81 90 252 0
-81 -90 -252 0
81 92 255 0
-81 -92 -255 0
82 83 334 0
-82 -83 -334 0
82 93 340 0
-82 -93 -340 0
82 96 343 0
-82 -96 -343 0
83 86 407 0
-83 -86 -407 0
83 91 412 0
-83 -91 -412 0
84 85 427 0
-84 -85 -427 0
84 86 429 0
-84 -86 -429 0
84 88 432 0
-84 -88 -432 0
84 91 434 0
-84 -91 -434 0
85 87 441 0
-85 -87 -441 0
85 96 446 0
-85 -96 -446 0
86 89 483 0
-86 -89 -483 0
86 93 485 0
-86 -93 -485 0
86 96 489 0
-86 -96 -489 0
87 90 501 0
-87 -90 -501 0
87 91 503 0
-87 -91 -503 0
87 93 505 0
-87 -93 -505 0
88 96 541 0
-88 -96 -541 0
89 91 556 0
-89 -91 -556 0
90 94 564 0
-90 -94 -564 0
91 92 583 0
-91 -92 -583 0
91 94 586 0
-91 -94 -586 0
91 95 587 0
-91 -95 -587 0
92 93 599 0
-92 -93 -599 0
92 96 602 0
-92 -96 -602 0
93 94 608 0
-93 -94 -608 0
94 96 626 0
-94 -96 -626 0
95 96 627 0
-95 -96 -627 0
97 99 139 0
-97 -99 -139 0
97 104 141 0
-97 -104 -141 0
97 107 144 0
-97 -107 -144 0
97 109 146 0
-97 -109 -146 0
97 112 150 0
-97 -112 -150 0
97 115 152 0
-97 -115 -152 0
98 99 191 0
-98 -99 -191 0
98 104 194 0
-98 -104 -194 0
98 106 197 0
-98 -106 -197 0
98 111 202 0
-98 -111 -202 0
98 116 206 0
-98 -116 -206 0
99 101 259 0
-99 -101 -259 0
99 102 260 0
-99 -102 -260 0
99 105 263 0
-99 -105 -263 0
99 108 269 0
-99 -108 -269 0
100 104 292 0
-100 -104 -292 0
100 106 294 0
-100 -106 -294 0
100 110 301 0
-100 -110 -301 0
100 113 305 0
-100 -113 -305 0
100 115 308 0
-100 -115 -308 0
101 106 311 0
-101 -106 -311 0
101 109 313 0
-101 -109 -313 0
101 110 314 0
-101 -110 -314 0
101 112 316 0
-101 -112 -316 0
101 115 317 0
-101 -115 -317 0
102 103 320 0
-102 -103 -320 0
102 107 323 0
-102 -107 -323 0
102 113 329 0
-102 -113 -329 0
103 106 370 0
-103 -106 -370 0
103 110 375 0
-103 -110 -375 0
103 111 376 0
-103 -111 -376 0
103 116 381 0
-103 -116 -381 0
104 108 397 0
-104 -108 -397 0
104 114 403 0
-104 -114 -403 0
105 106 418 0
-105 -106 -418 0
105 110 422 0
-105 -110 -422 0
105 111 423 0
-105 -111 -423 0
105 112 425 0
-105 -112 -425 0
106 107 447 0
-106 -107 -447 0
106 108 450 0
-106 -108 -450 0
106 114 455 0
-106 -114 -455 0
107 111 469 0
-107 -111 -469 0
107 116 471 0
-107 -116 -471 0
108 109 543 0
-108 -109 -543 0
108 110 544 0
-108 -110 -544 0
108 113 547 0
-108 -113 -547 0
109 111 557 0
-109 -111 -557 0
109 114 559 0
-109 -114 -559 0
111 115 589 0
-111 -115 -589 0
112 113 603 0
-112 -113 -603 0
112 114 605 0
-112 -114 -605 0
113 116 608 0
-113 -116 -608 0
114 116 616 0
-114 -116 -616 0
115 116 621 0
-115 -116 -621 0
117 120 224 0
-117 -120 -224 0
117 121 225 0
-117 -121 -225 0
117 126 231 0
-117 -126 -231 0
117 129 233 0
-117 -129 -233 0
117 132 236 0
-117 -132 -236 0
117 133 237 0
-117 -133 -237 0
118 120 259 0
-118 -120 -259 0
118 121 260 0
-118 -121 -260 0
118 124 263 0
-118 -124 -263 0
118 127 266 0
-118 -127 -266 0
118 129 268 0
-118 -129 -268 0
118 132 270 0
-118 -132 -270 0
119 120 276 0
-119 -120 -276 0
119 121 277 0
-119 -121 -277 0
119 123 278 0
-119 -123 -278 0
119 127 283 0
-119 -127 -283 0
119 133 286 0
-119 -133 -286 0
119 136 289 0
-119 -136 -289 0
120 125 310 0
-120 -125 -310 0
120 131 314 0
-120 -131 -314 0
120 134 316 0
-120 -134 -316 0
120 135 317 0
-120 -135 -317 0
121 122 321 0
-121 -122 -321 0
121 128 325 0
-121 -128 -325 0
122 126 387 0
-122 -126 -387 0
122 130 390 0
-122 -130 -390 0
122 131 391 0
-122 -131 -391 0
122 132 392 0
-122 -132 -392 0
122 133 393 0
-122 -133 -393 0
123 128 408 0
-123 -128 -408 0
123 131 410 0
-123 -131 -410 0
123 134 414 0
-123 -134 -414 0
123 135 415 0
-123 -135 -415 0
124 125 416 0
-124 -125 -416 0
124 128 421 0
-124 -128 -421 0
124 131 422 0
-124 -131 -422 0
124 133 423 0
-124 -133 -423 0
124 134 425 0
-124 -134 -425 0
125 126 430 0
-125 -126 -430 0
125 129 432 0
-125 -129 -432 0
126 127 490 0
-126 -127 -490 0
126 128 491 0
-126 -128 -491 0
126 135 496 0
-126 -135 -496 0
127 130 501 0
-127 -130 -501 0
127 131 502 0
-127 -131 -502 0
128 129 509 0
-128 -129 -509 0
128 132 511 0
-128 -132 -511 0
128 136 515 0
-128 -136 -515 0
129 131 537 0
-129 -131 -537 0
129 135 540 0
-129 -135 -540 0
131 136 568 0
-131 -136 -568 0
132 135 572 0
-132 -135 -572 0
133 135 589 0
-133 -135 -589 0
135 136 623 0
-135 -136 -623 0
137 141 210 0
-137 -141 -210 0
137 150 220 0
-137 -150 -220 0
137 155 223 0
-137 -155 -223 0
138 140 226 0
-138 -140 -226 0
138 144 230 0
-138 -144 -230 0
138 146 235 0
-138 -146 -235 0
138 147 236 0
-138 -147 -236 0
138 149 239 0
-138 -149 -239 0
139 140 261 0
-139 -140 -261 0
139 147 270 0
-139 -147 -270 0
139 148 272 0
-139 -148 -272 0
140 141 333 0
-140 -141 -333 0
140 143 335 0
-140 -143 -335 0
140 145 337 0
-140 -145 -337 0
140 150 339 0
-140 -150 -339 0
140 155 343 0
-140 -155 -343 0
141 142 395 0
-141 -142 -395 0
141 147 399 0
-141 -147 -399 0
141 149 402 0
-141 -149 -402 0
141 153 404 0
-141 -153 -404 0
141 154 405 0
-141 -154 -405 0
142 143 438 0
-142 -143 -438 0
142 144 439 0
-142 -144 -439 0
142 150 444 0
-142 -150 -444 0
142 155 446 0
-142 -155 -446 0
143 149 461 0
-143 -149 -461 0
143 153 462 0
-143 -153 -462 0
143 154 463 0
-143 -154 -463 0
144 145 467 0
-144 -145 -467 0
144 148 470 0
-144 -148 -470 0
144 153 472 0
-144 -153 -472 0
145 147 511 0
-145 -147 -511 0
145 154 515 0
-145 -154 -515 0
147 151 571 0
-147 -151 -571 0
147 152 572 0
-147 -152 -572 0
148 149 592 0
-148 -149 -592 0
148 150 593 0
-148 -150 -593 0
148 154 594 0
-148 -154 -594 0
149 151 600 0
-149 -151 -600 0
149 155 602 0
-149 -155 -602 0
150 151 604 0
-150 -151 -604 0
151 154 610 0
-151 -154 -610 0
152 153 622 0
-152 -153 -622 0
152 154 623 0
-152 -154 -623 0
154 155 627 0
-154 -155 -627 0
156 164 216 0
-156 -164 -216 0
156 165 217 0
-156 -165 -217 0
156 171 222 0
-156 -171 -222 0
157 159 360 0
-157 -159 -360 0
157 163 362 0
-157 -163 -362 0
157 168 364 0
-157 -168 -364 0
158 162 408 0
-158 -162 -408 0
158 164 410 0
-158 -164 -410 0
158 165 411 0
-158 -165 -411 0
158 167 413 0
-158 -167 -413 0
158 169 415 0
-158 -169 -415 0
159 161 439 0
-159 -161 -439 0
159 164 442 0
-159 -164 -442 0
159 165 443 0
-159 -165 -443 0
159 171 445 0
-159 -171 -445 0
160 161 447 0
-160 -161 -447 0
160 165 452 0
-160 -165 -452 0
160 167 453 0
-160 -167 -453 0
160 170 456 0
-160 -170 -456 0
161 162 467 0
-161 -162 -467 0
161 166 470 0
-161 -166 -470 0
162 163 509 0
-162 -163 -509 0
162 168 512 0
-162 -168 -512 0
162 170 515 0
-162 -170 -515 0
163 164 537 0
-163 -164 -537 0
163 165 538 0
-163 -165 -538 0
163 167 539 0
-163 -167 -539 0
163 169 540 0
-163 -169 -540 0
164 170 568 0
-164 -170 -568 0
165 166 574 0
-165 -166 -574 0
166 167 591 0
-166 -167 -591 0
166 170 594 0
-166 -170 -594 0
167 168 595 0
-167 -168 -595 0
168 171 609 0
-168 -171 -609 0
169 170 623 0
-169 -170 -623 0
169 171 624 0
-169 -171 -624 0
172 174 224 0
-172 -174 -224 0
172 175 228 0
-172 -175 -228 0
172 181 231 0
-172 -181 -231 0
172 185 237 0
-172 -185 -237 0
173 174 241 0
-173 -174 -241 0
173 177 243 0
-173 -177 -243 0
173 178 245 0
-173 -178 -245 0
173 183 250 0
-173 -183 -250 0
173 186 257 0
-173 -186 -257 0
173 188 258 0
-173 -188 -258 0
174 180 312 0
-174 -180 -312 0
174 184 315 0
-174 -184 -315 0
175 182 361 0
-175 -182 -361 0
175 186 365 0
-175 -186 -365 0
175 189 368 0
-175 -189 -368 0
176 185 376 0
-176 -185 -376 0
176 186 379 0
-176 -186 -379 0
176 187 380 0
-176 -187 -380 0
177 180 386 0
-177 -180 -386 0
177 181 387 0
-177 -181 -387 0
177 185 393 0
-177 -185 -393 0
178 180 420 0
-178 -180 -420 0
178 185 423 0
-178 -185 -423 0
179 180 473 0
-179 -180 -473 0
179 183 474 0
-179 -183 -474 0
179 188 479 0
-179 -188 -479 0
180 186 486 0
-180 -186 -486 0
180 187 487 0
-180 -187 -487 0
180 189 489 0
-180 -189 -489 0
181 182 490 0
-181 -182 -490 0
181 188 495 0
-181 -188 -495 0
182 183 499 0
-182 -183 -499 0
182 184 503 0
-182 -184 -503 0
182 187 506 0
-182 -187 -506 0
184 185 580 0
-184 -185 -580 0
184 186 585 0
-184 -186 -585 0
185 189 590 0
-185 -189 -590 0
187 188 612 0
-187 -188 -612 0
188 189 620 0
-188 -189 -620 0
190 194 210 0
-190 -194 -210 0
190 196 212 0
-190 -196 -212 0
190 202 219 0
-190 -202 -219 0
190 206 221 0
-190 -206 -221 0
191 193 262 0
-191 -193 -262 0
191 201 270 0
-191 -201 -270 0
191 203 273 0
-191 -203 -273 0
191 205 274 0
-191 -205 -274 0
192 193 344 0
-192 -193 -344 0
192 197 347 0
-192 -197 -347 0
192 199 349 0
-192 -199 -349 0
192 201 352 0
-192 -201 -352 0
192 202 354 0
-192 -202 -354 0
193 196 359 0
-193 -196 -359 0
193 204 363 0
-193 -204 -363 0
193 206 366 0
-193 -206 -366 0
193 207 367 0
-193 -207 -367 0
194 201 399 0
-194 -201 -399 0
194 204 402 0
-194 -204 -402 0
194 207 404 0
-194 -207 -404 0
195 203 413 0
-195 -203 -413 0
196 197 428 0
-196 -197 -428 0
196 199 430 0
-196 -199 -430 0
196 205 437 0
-196 -205 -437 0
197 200 449 0
-197 -200 -449 0
197 203 453 0
-197 -203 -453 0
197 204 454 0
-197 -204 -454 0
198 200 459 0
-198 -200 -459 0
198 202 460 0
-198 -202 -460 0
198 204 461 0
-198 -204 -461 0
198 207 462 0
-198 -207 -462 0
199 200 492 0
-199 -200 -492 0
199 204 494 0
-199 -204 -494 0
200 205 523 0
-200 -205 -523 0
200 206 524 0
-200 -206 -524 0
202 203 588 0
-202 -203 -588 0
203 206 597 0
-203 -206 -597 0
203 207 598 0
-203 -207 -598 0
205 207 613 0
-205 -207 -613 0
208 212 369 0
-208 -212 -369 0
208 216 375 0
-208 -216 -375 0
208 219 376 0
-208 -219 -376 0
208 221 381 0
-208 -221 -381 0
209 215 390 0
-209 -215 -390 0
209 216 391 0
-209 -216 -391 0
209 219 393 0
-209 -219 -393 0
210 213 397 0
-210 -213 -397 0
210 215 398 0
-210 -215 -398 0
210 217 400 0
-210 -217 -400 0
210 218 401 0
-210 -218 -401 0
210 222 406 0
-210 -222 -406 0
211 212 416 0
-211 -212 -416 0
211 216 422 0
-211 -216 -422 0
211 219 423 0
-211 -219 -423 0
211 220 425 0
-211 -220 -425 0
212 217 433 0
-212 -217 -433 0
212 218 434 0
-212 -218 -434 0
213 214 542 0
-213 -214 -542 0
213 216 544 0
-213 -216 -544 0
214 215 549 0
-214 -215 -549 0
214 218 550 0
-214 -218 -550 0
214 223 555 0
-214 -223 -555 0
215 221 564 0
-215 -221 -564 0
216 218 565 0
-216 -218 -565 0
216 223 569 0
-216 -223 -569 0
217 220 575 0
-217 -220 -575 0
217 223 579 0
-217 -223 -579 0
218 219 580 0
-218 -219 -580 0
218 220 584 0
-218 -220 -584 0
218 221 586 0
-218 -221 -586 0
219 223 590 0
-219 -223 -590 0
220 222 606 0
-220 -222 -606 0
221 222 625 0
-221 -222 -625 0
221 223 626 0
-221 -223 -626 0
224 229 311 0
-224 -229 -311 0
224 235 313 0
-224 -235 -313 0
225 228 319 0
-225 -228 -319 0
225 230 323 0
-225 -230 -323 0
226 228 332 0
-226 -228 -332 0
226 237 338 0
-226 -237 -338 0
227 228 344 0
-227 -228 -344 0
227 229 347 0
-227 -229 -347 0
227 231 349 0
-227 -231 -349 0
227 234 351 0
-227 -234 -351 0
227 236 352 0
-227 -236 -352 0
227 237 354 0
-227 -237 -354 0
228 233 362 0
-228 -233 -362 0
228 239 363 0
-228 -239 -363 0
228 240 366 0
-228 -240 -366 0
229 230 447 0
-229 -230 -447 0
229 232 449 0
-229 -232 -449 0
229 238 453 0
-229 -238 -453 0
229 239 454 0
-229 -239 -454 0
230 231 466 0
-230 -231 -466 0
230 237 469 0
-230 -237 -469 0
230 240 471 0
-230 -240 -471 0
231 232 492 0
-231 -232 -492 0
231 239 494 0
-231 -239 -494 0
232 233 517 0
-232 -233 -517 0
232 235 519 0
-232 -235 -519 0
232 240 524 0
-232 -240 -524 0
233 234 536 0
-233 -234 -536 0
233 238 539 0
-233 -238 -539 0
234 235 548 0
-234 -235 -548 0
235 237 557 0
-235 -237 -557 0
237 238 588 0
-237 -238 -588 0
238 240 597 0
-238 -240 -597 0
241 246 310 0
-241 -246 -310 0
241 251 313 0
-241 -251 -313 0
241 253 314 0
-241 -253 -314 0
241 256 316 0
-241 -256 -316 0
242 243 345 0
-242 -243 -345 0
242 245 346 0
-242 -245 -346 0
242 250 350 0
-242 -250 -350 0
242 257 355 0
-242 -257 -355 0
243 247 384 0
-243 -247 -384 0
243 249 389 0
-243 -249 -389 0
243 252 390 0
-243 -252 -390 0
243 253 391 0
-243 -253 -391 0
244 248 408 0
-244 -248 -408 0
244 253 410 0
-244 -253 -410 0
244 256 414 0
-244 -256 -414 0
245 246 416 0
-245 -246 -416 0
245 247 419 0
-245 -247 -419 0
245 248 421 0
-245 -248 -421 0
245 253 422 0
-245 -253 -422 0
245 256 425 0
-245 -256 -425 0
246 249 431 0
-246 -249 -431 0
246 254 435 0
-246 -254 -435 0
246 257 436 0
-246 -257 -436 0
247 255 461 0
-247 -255 -461 0
248 249 508 0
-248 -249 -508 0
248 250 510 0
-248 -250 -510 0
248 258 513 0
-248 -258 -513 0
249 251 527 0
-249 -251 -527 0
249 255 530 0
-249 -255 -530 0
249 256 531 0
-249 -256 -531 0
250 251 543 0
-250 -251 -543 0
250 253 544 0
-250 -253 -544 0
250 254 546 0
-250 -254 -546 0
251 258 559 0
-251 -258 -559 0
252 254 560 0
-252 -254 -560 0
252 258 563 0
-252 -258 -563 0
253 255 566 0
-253 -255 -566 0
254 255 592 0
-254 -255 -592 0
254 256 593 0
-254 -256 -593 0
255 257 600 0
-255 -257 -600 0
255 258 601 0
-255 -258 -601 0
256 257 604 0
-256 -257 -604 0
256 258 605 0
-256 -258 -605 0
259 265 312 0
-259 -265 -312 0
259 275 318 0
-259 -275 -318 0
260 262 319 0
-260 -262 -319 0
260 264 324 0
-260 -264 -324 0
260 267 326 0
-260 -267 -326 0
260 272 328 0
-260 -272 -328 0
260 274 330 0
-260 -274 -330 0
261 262 332 0
-261 -262 -332 0
261 264 336 0
-261 -264 -336 0
261 274 341 0
-261 -274 -341 0
262 266 361 0
-262 -266 -361 0
262 268 362 0
-262 -268 -362 0
263 265 420 0
-263 -265 -420 0
263 273 424 0
-263 -273 -424 0
264 265 473 0
-264 -265 -473 0
264 269 474 0
-264 -269 -474 0
264 273 477 0
-264 -273 -477 0
264 275 481 0
-264 -275 -481 0
265 267 482 0
-265 -267 -482 0
265 274 487 0
-265 -274 -487 0
266 267 498 0
-266 -267 -498 0
266 269 499 0
-266 -269 -499 0
266 273 504 0
-266 -273 -504 0
266 274 506 0
-266 -274 -506 0
267 268 526 0
-267 -268 -526 0
267 270 528 0
-267 -270 -528 0
268 269 535 0
-268 -269 -535 0
268 271 538 0
-268 -271 -538 0
268 273 539 0
-268 -273 -539 0
269 270 545 0
-269 -270 -545 0
269 272 546 0
-269 -272 -546 0
270 275 573 0
-270 -275 -573 0
271 272 574 0
-271 -272 -574 0
271 274 577 0
-271 -274 -577 0
272 273 591 0
-272 -273 -591 0
274 275 615 0
-274 -275 -615 0
276 282 312 0
-276 -282 -312 0
276 285 315 0
-276 -285 -315 0
277 280 322 0
-277 -280 -322 0
277 281 323 0
-277 -281 -323 0
277 285 327 0
-277 -285 -327 0
277 287 330 0
-277 -287 -330 0
278 282 407 0
-278 -282 -407 0
278 285 412 0
-278 -285 -412 0
279 280 438 0
-279 -280 -438 0
279 281 439 0
-279 -281 -439 0
279 283 441 0
-279 -283 -441 0
279 290 446 0
-279 -290 -446 0
280 282 458 0
-280 -282 -458 0
280 284 459 0
-280 -284 -459 0
280 286 460 0
-280 -286 -460 0
280 289 463 0
-280 -289 -463 0
281 282 465 0
-281 -282 -465 0
281 286 469 0
-281 -286 -469 0
281 288 471 0
-281 -288 -471 0
282 287 487 0
-282 -287 -487 0
282 290 489 0
-282 -290 -489 0
283 285 503 0
-283 -285 -503 0
283 287 506 0
-283 -287 -506 0
284 287 523 0
-284 -287 -523 0
284 288 524 0
-284 -288 -524 0
285 286 580 0
-285 -286 -580 0
285 288 586 0
-285 -288 -586 0
285 289 587 0
-285 -289 -587 0
286 290 590 0
-286 -290 -590 0
287 289 614 0
-287 -289 -614 0
288 290 626 0
-288 -290 -626 0
289 290 627 0
-289 -290 -627 0
291 295 384 0
-291 -295 -384 0
291 297 387 0
-291 -297 -387 0
291 300 390 0
-291 -300 -390 0
291 301 391 0
-291 -301 -391 0
291 302 392 0
-291 -302 -392 0
291 305 394 0
-291 -305 -394 0
292 300 398 0
-292 -300 -398 0
292 302 399 0
-292 -302 -399 0
292 303 400 0
-292 -303 -400 0
292 304 402 0
-292 -304 -402 0
292 309 405 0
-292 -309 -405 0
293 298 408 0
-293 -298 -408 0
293 301 410 0
-293 -301 -410 0
293 303 411 0
-293 -303 -411 0
293 308 415 0
-293 -308 -415 0
294 296 448 0
-294 -296 -448 0
294 300 451 0
-294 -300 -451 0
294 303 452 0
-294 -303 -452 0
294 304 454 0
-294 -304 -454 0
294 309 456 0
-294 -309 -456 0
295 296 457 0
-295 -296 -457 0
295 304 461 0
-295 -304 -461 0
295 309 463 0
-295 -309 -463 0
296 301 476 0
-296 -301 -476 0
296 305 478 0
-296 -305 -478 0
296 308 480 0
-296 -308 -480 0
297 298 491 0
-297 -298 -491 0
297 303 493 0
-297 -303 -493 0
297 304 494 0
-297 -304 -494 0
297 308 496 0
-297 -308 -496 0
298 299 509 0
-298 -299 -509 0
298 302 511 0
-298 -302 -511 0
298 305 512 0
-298 -305 -512 0
298 309 515 0
-298 -309 -515 0
299 301 537 0
-299 -301 -537 0
299 303 538 0
-299 -303 -538 0
299 308 540 0
-299 -308 -540 0
300 307 562 0
-300 -307 -562 0
301 304 566 0
-301 -304 -566 0
301 309 568 0
-301 -309 -568 0
302 306 571 0
-302 -306 -571 0
302 308 572 0
-302 -308 -572 0
303 306 576 0
-303 -306 -576 0
303 307 577 0
-303 -307 -577 0
304 305 599 0
-304 -305 -599 0
304 306 600 0
-304 -306 -600 0
305 307 607 0
-305 -307 -607 0
306 309 610 0
-306 -309 -610 0
307 309 614 0
-307 -309 -614 0
308 309 623 0
-308 -309 -623 0
310 311 428 0
-310 -311 -428 0
310 312 429 0
-310 -312 -429 0
310 315 434 0
-310 -315 -434 0
312 313 483 0
-312 -313 -483 0
312 316 484 0
-312 -316 -484 0
312 317 488 0
-312 -317 -488 0
313 315 556 0
-313 -315 -556 0
314 315 565 0
-314 -315 -565 0
315 316 584 0
-315 -316 -584 0
316 318 606 0
-316 -318 -606 0
317 318 624 0
-317 -318 -624 0
319 329 364 0
-319 -329 -364 0
319 331 367 0
-319 -331 -367 0
320 322 371 0
-320 -322 -371 0
320 325 372 0
-320 -325 -372 0
320 328 377 0
-320 -328 -377 0
320 330 380 0
-320 -330 -380 0
321 322 384 0
-321 -322 -384 0
321 323 385 0
-321 -323 -385 0
321 326 389 0
-321 -326 -389 0
321 329 394 0
-321 -329 -394 0
322 324 457 0
-322 -324 -457 0
322 331 462 0
-322 -331 -462 0
323 324 464 0
-323 -324 -464 0
323 325 467 0
-323 -325 -467 0
323 328 470 0
-323 -328 -470 0
323 331 472 0
-323 -331 -472 0
324 329 478 0
-324 -329 -478 0
325 326 508 0
-325 -326 -508 0
325 329 512 0
-325 -329 -512 0
326 327 529 0
-326 -327 -529 0
326 331 534 0
-326 -331 -534 0
327 328 581 0
-327 -328 -581 0
329 330 607 0
-329 -330 -607 0
330 331 613 0
-330 -331 -613 0
332 340 364 0
-332 -340 -364 0
332 343 368 0
-332 -343 -368 0
333 342 403 0
-333 -342 -403 0
334 337 408 0
-334 -337 -408 0
334 339 414 0
-334 -339 -414 0
335 336 457 0
-335 -336 -457 0
335 338 460 0
-335 -338 -460 0
336 340 478 0
-336 -340 -478 0
336 342 479 0
-336 -342 -479 0
337 340 512 0
-337 -340 -512 0
337 342 513 0
-337 -342 -513 0
338 343 590 0
-338 -343 -590 0
339 340 603 0
-339 -340 -603 0
339 342 605 0
-339 -342 -605 0
340 341 607 0
-340 -341 -607 0
341 342 612 0
-341 -342 -612 0
342 343 620 0
-342 -343 -620 0
344 355 365 0
-344 -355 -365 0
344 358 368 0
-344 -358 -368 0
345 348 386 0
-345 -348 -386 0
345 349 387 0
-345 -349 -387 0
345 352 392 0
-345 -352 -392 0
345 354 393 0
-345 -354 -393 0
346 347 418 0
-346 -347 -418 0
346 348 420 0
-346 -348 -420 0
346 354 423 0
-346 -354 -423 0
347 350 450 0
-347 -350 -450 0
347 353 452 0
-347 -353 -452 0
347 357 456 0
-347 -357 -456 0
348 355 486 0
-348 -355 -486 0
348 356 488 0
-348 -356 -488 0
348 358 489 0
-348 -358 -489 0
349 353 493 0
-349 -353 -493 0
349 356 496 0
-349 -356 -496 0
350 351 542 0
-350 -351 -542 0
350 352 545 0
-350 -352 -545 0
351 355 552 0
-351 -355 -552 0
351 358 555 0
-351 -358 -555 0
352 355 571 0
-352 -355 -571 0
352 356 572 0
-352 -356 -572 0
353 355 576 0
-353 -355 -576 0
353 358 579 0
-353 -358 -579 0
354 356 589 0
-354 -356 -589 0
354 358 590 0
-354 -358 -590 0
355 357 610 0
-355 -357 -610 0
356 357 623 0
-356 -357 -623 0
357 358 627 0
-357 -358 -627 0
359 360 427 0
-359 -360 -427 0
359 362 432 0
-359 -362 -432 0
359 365 436 0
-359 -365 -436 0
360 361 441 0
-360 -361 -441 0
360 368 446 0
-360 -368 -446 0
361 364 505 0
-361 -364 -505 0
361 367 507 0
-361 -367 -507 0
362 368 541 0
-362 -368 -541 0
363 364 599 0
-363 -364 -599 0
363 365 600 0
-363 -365 -600 0
363 368 602 0
-363 -368 -602 0
364 366 608 0
-364 -366 -608 0
366 368 626 0
-366 -368 -626 0
369 370 428 0
-369 -370 -428 0
369 374 432 0
-369 -374 -432 0
369 377 435 0
-369 -377 -435 0
369 379 436 0
-369 -379 -436 0
369 380 437 0
-369 -380 -437 0
370 373 449 0
-370 -373 -449 0
370 378 453 0
-370 -378 -453 0
370 382 456 0
-370 -382 -456 0
371 373 459 0
-371 -373 -459 0
371 376 460 0
-371 -376 -460 0
371 382 463 0
-371 -382 -463 0
372 374 509 0
-372 -374 -509 0
372 381 514 0
-372 -381 -514 0
372 382 515 0
-372 -382 -515 0
373 374 517 0
-373 -374 -517 0
373 380 523 0
-373 -380 -523 0
373 381 524 0
-373 -381 -524 0
374 375 537 0
-374 -375 -537 0
374 378 539 0
-374 -378 -539 0
375 382 568 0
-375 -382 -568 0
376 378 588 0
-376 -378 -588 0
377 378 591 0
-377 -378 -591 0
377 382 594 0
-377 -382 -594 0
378 379 596 0
-378 -379 -596 0
378 381 597 0
-378 -381 -597 0
379 382 610 0
-379 -382 -610 0
380 382 614 0
-380 -382 -614 0
383 384 438 0
-383 -384 -438 0
383 385 439 0
-383 -385 -439 0
383 391 442 0
-383 -391 -442 0
384 386 458 0
-384 -386 -458 0
384 388 459 0
-384 -388 -459 0
384 393 460 0
-384 -393 -460 0
385 386 465 0
-385 -386 -465 0
385 387 466 0
-385 -387 -466 0
385 390 468 0
-385 -390 -468 0
385 393 469 0
-385 -393 -469 0
386 389 482 0
-386 -389 -482 0
386 394 485 0
-386 -394 -485 0
387 388 492 0
-387 -388 -492 0
388 389 516 0
-388 -389 -516 0
388 390 520 0
-388 -390 -520 0
389 392 528 0
-389 -392 -528 0
395 396 441 0
-395 -396 -441 0
395 400 443 0
-395 -400 -443 0
395 406 445 0
-395 -406 -445 0
396 397 499 0
-396 -397 -499 0
396 398 501 0
-396 -398 -501 0
396 401 503 0
-396 -401 -503 0
396 404 507 0
-396 -404 -507 0
397 399 545 0
-397 -399 -545 0
398 403 563 0
-398 -403 -563 0
399 401 570 0
-399 -401 -570 0
399 406 573 0
-399 -406 -573 0
400 403 578 0
-400 -403 -578 0
401 402 583 0
-401 -402 -583 0
401 405 587 0
-401 -405 -587 0
402 403 601 0
-402 -403 -601 0
403 404 617 0
-403 -404 -617 0
403 405 618 0
-403 -405 -618 0
403 406 619 0
-403 -406 -619 0
407 414 484 0
-407 -414 -484 0
407 415 488 0
-407 -415 -488 0
409 412 550 0
-409 -412 -550 0
410 412 565 0
-410 -412 -565 0
411 414 575 0
-411 -414 -575 0
412 413 582 0
-412 -413 -582 0
412 414 584 0
-412 -414 -584 0
416 417 427 0
-416 -417 -427 0
416 418 428 0
-416 -418 -428 0
416 420 429 0
-416 -420 -429 0
417 419 438 0
-417 -419 -438 0
417 422 442 0
-417 -422 -442 0
417 425 444 0
-417 -425 -444 0
418 424 453 0
-418 -424 -453 0
419 420 458 0
-419 -420 -458 0
419 423 460 0
-419 -423 -460 0
419 426 462 0
-419 -426 -462 0
420 425 484 0
-420 -425 -484 0
422 426 567 0
-422 -426 -567 0
423 424 588 0
-423 -424 -588 0
424 426 598 0
-424 -426 -598 0
427 433 443 0
-427 -433 -443 0
428 433 452 0
-428 -433 -452 0
429 431 482 0
-429 -431 -482 0
429 436 486 0
-429 -436 -486 0
429 437 487 0
-429 -437 -487 0
430 433 493 0
-430 -433 -493 0
431 432 526 0
-431 -432 -526 0
431 434 529 0
-431 -434 -529 0
432 433 538 0
-432 -433 -538 0
433 435 574 0
-433 -435 -574 0
433 436 576 0
-433 -436 -576 0
433 437 577 0
-433 -437 -577 0
434 435 581 0
-434 -435 -581 0
434 436 585 0
-434 -436 -585 0
438 440 457 0
-438 -440 -457 0
439 440 464 0
-439 -440 -464 0
440 442 476 0
-440 -442 -476 0
440 445 481 0
-440 -445 -481 0
441 442 502 0
-441 -442 -502 0
442 446 569 0
-442 -446 -569 0
443 444 575 0
-443 -444 -575 0
443 446 579 0
-443 -446 -579 0
444 445 606 0
-444 -445 -606 0
447 448 464 0
-447 -448 -464 0
447 451 468 0
-447 -451 -468 0
448 450 474 0
-448 -450 -474 0
448 453 477 0
-448 -453 -477 0
448 455 479 0
-448 -455 -479 0
449 450 518 0
-449 -450 -518 0
449 451 520 0
-449 -451 -520 0
449 452 521 0
-449 -452 -521 0
451 453 561 0
-451 -453 -561 0
451 455 563 0
-451 -455 -563 0
452 455 578 0
-452 -455 -578 0
454 455 601 0
-454 -455 -601 0
455 456 618 0
-455 -456 -618 0
457 458 473 0
-457 -458 -473 0
464 465 473 0
-464 -465 -473 0
466 467 491 0
-466 -467 -491 0
467 471 514 0
-467 -471 -514 0
468 470 560 0
-468 -470 -560 0
468 471 564 0
-468 -471 -564 0
473 475 483 0
-473 -475 -483 0
473 478 485 0
-473 -478 -485 0
473 480 488 0
-473 -480 -488 0
474 475 543 0
-474 -475 -543 0
474 476 544 0
-474 -476 -544 0
474 478 547 0
-474 -478 -547 0
475 479 559 0
-475 -479 -559 0
477 478 595 0
-477 -478 -595 0
478 481 609 0
-478 -481 -609 0
479 481 619 0
-479 -481 -619 0
480 481 624 0
-480 -481 -624 0
482 483 527 0
-482 -483 -527 0
482 484 531 0
-482 -484 -531 0
482 488 532 0
-482 -488 -532 0
483 487 558 0
-483 -487 -558 0
484 485 603 0
-484 -485 -603 0
484 486 604 0
-484 -486 -604 0
485 487 607 0
-485 -487 -607 0
491 495 513 0
-491 -495 -513 0
492 493 521 0
-492 -493 -521 0
492 497 525 0
-492 -497 -525 0
493 495 578 0
-493 -495 -578 0
494 495 601 0
-494 -495 -601 0
495 497 619 0
-495 -497 -619 0
496 497 624 0
-496 -497 -624 0
498 503 529 0
-498 -503 -529 0
498 507 534 0
-498 -507 -534 0
499 500 542 0
-499 -500 -542 0
499 502 544 0
-499 -502 -544 0
499 505 547 0
-499 -505 -547 0
500 501 549 0
-500 -501 -549 0
500 503 550 0
-500 -503 -550 0
500 507 554 0
-500 -507 -554 0
501 504 561 0
-501 -504 -561 0
501 506 562 0
-501 -506 -562 0
502 503 565 0
-502 -503 -565 0
502 507 567 0
-502 -507 -567 0
503 504 582 0
-503 -504 -582 0
504 505 595 0
-504 -505 -595 0
504 507 598 0
-504 -507 -598 0
505 506 607 0
-505 -506 -607 0
506 507 613 0
-506 -507 -613 0
508 509 526 0
-508 -509 -526 0
508 511 528 0
-508 -511 -528 0
508 514 533 0
-508 -514 -533 0
509 510 535 0
-509 -510 -535 0
510 511 545 0
-510 -511 -545 0
510 512 547 0
-510 -512 -547 0
512 514 608 0
-512 -514 -608 0
513 514 616 0
-513 -514 -616 0
513 515 618 0
-513 -515 -618 0
516 517 526 0
-516 -517 -526 0
516 519 527 0
-516 -519 -527 0
516 522 531 0
-516 -522 -531 0
516 524 533 0
-516 -524 -533 0
517 518 535 0
-517 -518 -535 0
517 521 538 0
-517 -521 -538 0
518 519 543 0
-518 -519 -543 0
519 523 558 0
-519 -523 -558 0
520 523 562 0
-520 -523 -562 0
520 524 564 0
-520 -524 -564 0
521 522 575 0
-521 -522 -575 0
521 523 577 0
-521 -523 -577 0
522 525 606 0
-522 -525 -606 0
523 525 615 0
-523 -525 -615 0
524 525 625 0
-524 -525 -625 0
526 532 540 0
-526 -532 -540 0
527 529 556 0
-527 -529 -556 0
528 529 570 0
-528 -529 -570 0
528 532 572 0
-528 -532 -572 0
529 530 583 0
-529 -530 -583 0
529 531 584 0
-529 -531 -584 0
529 533 586 0
-529 -533 -586 0
532 533 621 0
-532 -533 -621 0
532 534 622 0
-532 -534 -622 0
535 536 542 0
-535 -536 -542 0
535 537 544 0
-535 -537 -544 0
536 541 555 0
-536 -541 -555 0
537 541 569 0
-537 -541 -569 0
538 541 579 0
-538 -541 -579 0
542 543 548 0
-542 -543 -548 0
542 546 551 0
-542 -546 -551 0
548 550 556 0
-548 -550 -556 0
548 553 559 0
-548 -553 -559 0
549 551 560 0
-549 -551 -560 0
549 553 563 0
-549 -553 -563 0
550 551 581 0
-550 -551 -581 0
550 552 585 0
-550 -552 -585 0
553 554 617 0
-553 -554 -617 0
553 555 620 0
-553 -555 -620 0
556 557 580 0
-556 -557 -580 0
558 559 612 0
-558 -559 -612 0
560 561 591 0
-560 -561 -591 0
561 564 597 0
-561 -564 -597 0
562 563 612 0
-562 -563 -612 0
563 564 616 0
-563 -564 -616 0
565 566 583 0
-565 -566 -583 0
565 568 587 0
-565 -568 -587 0
566 569 602 0
-566 -569 -602 0
568 569 627 0
-568 -569 -627 0
570 571 585 0
-570 -571 -585 0
571 573 611 0
-571 -573 -611 0
572 573 624 0
-572 -573 -624 0
574 575 593 0
-574 -575 -593 0
575 576 604 0
-575 -576 -604 0
575 578 605 0
-575 -578 -605 0
577 578 612 0
-577 -578 -612 0
578 579 620 0
-578 -579 -620 0
580 582 588 0
-580 -582 -588 0
581 582 591 0
-581 -582 -591 0
581 583 592 0
-581 -583 -592 0
581 584 593 0
-581 -584 -593 0
581 587 594 0
-581 -587 -594 0
582 585 596 0
-582 -585 -596 0
582 586 597 0
-582 -586 -597 0
583 585 600 0
-583 -585 -600 0
584 585 604 0
-584 -585 -604 0
585 587 610 0
-585 -587 -610 0
595 597 608 0
-595 -597 -608 0
601 602 620 0
-601 -602 -620 0
603 606 609 0
-603 -606 -609 0
604 606 611 0
-604 -606 -611 0
605 606 619 0
-605 -606 -619 0
607 609 615 0
-607 -609 -615 0
608 609 625 0
-608 -609 -625 0
612 613 617 0
-612 -613 -617 0
612 614 618 0
-612 -614 -618 0
612 615 619 0
-612 -615 -619 0
616 619 625 0
-616 -619 -625 0
616 620 626 0
-616 -620 -626 0
618 620 627 0
-618 -620 -627 0
621 624 625 0
-621 -624 -625 0
