0 133
0 134
0 135
0 136
0 137
0 138
0 139
0 140
0 141
0 142
0 143
0 144
0 145
0 146
0 147
0 148
0 149
0 150
0 151
0 152
0 153
0 154
0 155
0 156
0 343
0 344
0 345
0 346
0 347
0 348
0 349
0 350
0 351
0 352
0 353
0 354
0 492
0 493
0 494
0 495
0 496
0 497
1 116
1 123
1 127
1 139
1 159
1 166
1 169
1 179
1 180
1 182
1 487
1 493
2 109
2 113
2 117
2 124
2 128
2 141
2 153
2 160
2 167
2 168
2 170
2 181
2 183
3 110
3 113
3 118
3 125
3 129
3 132
3 144
3 156
3 157
3 161
3 169
3 171
3 183
3 185
4 126
4 130
4 134
4 158
4 162
4 170
4 172
4 184
4 186
4 481
4 482
4 492
5 118
5 119
5 127
5 147
5 159
5 171
5 173
5 186
5 188
5 483
5 489
5 495
5 499
6 111
6 120
6 128
6 137
6 149
6 160
6 163
6 172
6 174
6 187
6 490
7 104
7 111
7 114
7 121
7 129
7 140
7 152
7 161
7 164
7 173
7 175
7 190
7 197
7 489
8 115
8 122
8 130
8 142
8 162
8 165
8 174
8 176
8 189
8 191
8 484
8 485
8 488
8 490
8 494
9 114
9 119
9 123
9 155
9 166
9 175
9 177
9 191
9 193
9 486
9 488
9 497
10 105
10 106
10 112
10 115
10 120
10 124
10 131
10 133
10 145
10 163
10 167
10 176
10 178
10 192
10 194
10 491
11 107
11 108
11 112
11 116
11 121
11 125
11 136
11 148
11 157
11 164
11 177
11 179
11 194
11 196
11 198
12 117
12 122
12 126
12 150
12 158
12 165
12 168
12 178
12 180
12 195
12 487
12 491
12 496
12 498
13 86
13 87
13 97
13 98
13 112
13 113
13 169
13 178
13 198
14 83
14 84
14 93
14 94
14 111
14 112
14 174
14 177
14 197
15 76
15 85
15 138
15 152
15 183
15 195
15 202
15 203
15 467
15 501
16 81
16 131
16 135
16 145
16 183
16 188
16 200
16 206
16 207
16 470
17 73
17 143
17 153
17 193
17 211
17 212
17 474
18 72
18 107
18 132
18 144
18 154
18 189
18 194
18 201
18 213
18 214
18 475
18 500
19 77
19 88
19 106
19 137
19 151
19 182
19 194
19 217
19 478
20 78
20 81
20 99
20 102
20 157
20 162
20 207
20 505
21 71
21 80
21 92
21 101
21 159
21 163
22 73
22 82
22 94
22 103
22 161
22 165
22 212
22 502
23 74
23 77
23 95
23 98
23 158
23 164
24 56
24 57
24 68
24 75
24 79
24 106
24 122
24 128
24 170
24 178
24 204
24 221
24 481
25 58
25 59
25 76
25 80
25 108
25 123
25 129
25 171
25 179
25 199
25 203
25 229
25 509
25 511
26 59
26 60
26 77
26 81
26 124
26 130
26 168
26 172
26 206
26 230
26 462
26 510
27 61
27 62
27 69
27 78
27 82
27 119
27 125
27 169
27 173
27 205
27 222
27 223
28 62
28 63
28 70
28 71
28 79
28 120
28 126
28 170
28 174
28 209
28 224
28 484
29 47
29 64
29 72
29 80
29 110
29 121
29 127
29 171
29 175
29 201
29 208
29 231
29 463
29 486
29 512
30 47
30 48
30 73
30 81
30 105
30 122
30 128
30 172
30 176
30 200
30 211
30 232
30 464
30 482
31 49
31 50
31 65
31 74
31 82
31 107
31 123
31 129
31 173
31 177
31 210
31 225
31 227
31 483
31 500
32 50
32 51
32 66
32 71
32 75
32 124
32 130
32 174
32 178
32 215
32 226
32 228
33 52
33 53
33 72
33 76
33 104
33 119
33 125
33 175
33 179
33 214
33 465
33 507
34 53
34 54
34 73
34 77
34 109
34 120
34 126
34 168
34 176
34 217
34 466
34 485
34 508
35 55
35 56
35 67
35 74
35 78
35 121
35 127
35 169
35 177
35 216
35 501
36 56
36 59
36 69
36 89
36 139
36 153
36 160
36 166
36 205
36 217
36 218
36 233
36 466
36 478
36 506
36 510
37 57
37 60
37 85
37 90
37 141
37 154
37 167
37 202
37 221
37 230
37 234
38 58
38 61
38 87
38 143
38 156
38 161
38 207
38 222
38 229
38 235
39 59
39 62
39 68
39 88
39 134
39 144
39 157
39 162
39 204
39 208
39 218
39 236
39 463
39 471
39 511
40 47
40 62
40 65
40 137
40 147
40 159
40 163
40 206
40 210
40 219
40 223
40 237
40 462
40 470
41 48
41 63
41 83
41 89
41 138
41 149
41 160
41 224
41 232
41 238
42 49
42 64
42 91
42 140
42 151
42 164
42 212
42 225
42 231
42 239
43 47
43 50
43 70
43 142
43 152
43 161
43 165
43 209
43 214
43 219
43 226
43 240
43 465
43 475
44 50
44 53
44 67
44 85
44 145
44 155
44 167
44 211
44 216
44 220
44 227
44 241
44 464
44 474
45 52
45 55
45 84
45 88
45 135
45 148
45 157
45 242
46 53
46 56
46 66
46 136
46 150
46 158
46 164
46 203
46 215
46 220
46 243
46 467
46 506
46 507
47 53
47 59
47 105
47 110
47 121
47 128
47 137
47 152
47 183
47 194
47 204
47 216
47 233
47 243
47 244
47 255
47 263
47 470
47 475
47 508
47 509
48 54
48 60
48 89
48 122
48 138
48 184
48 195
48 234
48 459
48 476
48 482
48 494
48 505
48 510
48 514
48 523
49 55
49 61
49 91
49 107
49 129
49 140
49 154
49 185
49 196
49 235
49 460
49 478
49 515
49 524
50 56
50 62
50 85
50 123
50 130
50 142
50 155
50 180
50 186
50 203
50 206
50 221
50 222
50 233
50 236
50 245
50 246
50 483
50 524
50 525
51 57
51 63
51 86
51 124
51 133
51 143
51 181
51 187
51 234
51 256
51 459
51 471
51 516
51 525
52 58
52 64
52 88
52 119
52 135
52 182
52 188
52 235
52 460
52 473
52 497
52 504
52 511
52 517
52 526
53 59
53 104
53 109
53 120
53 125
53 136
53 145
53 183
53 205
53 209
53 236
53 237
53 247
53 248
53 467
53 474
53 512
54 60
54 126
54 146
54 184
54 189
54 238
54 468
54 485
54 496
54 502
54 516
54 527
55 61
55 84
55 121
55 138
55 148
55 185
55 190
55 207
55 223
55 239
55 257
55 470
55 517
55 528
56 62
56 89
56 122
56 127
56 139
56 150
56 186
56 191
56 208
56 211
56 224
56 225
56 237
56 240
56 249
56 250
56 481
56 518
56 528
57 63
57 90
57 106
57 128
57 141
57 151
57 187
57 192
57 213
57 226
57 238
57 258
57 475
57 513
57 518
58 64
58 123
58 143
58 188
58 193
58 239
58 259
58 477
58 493
58 519
59 108
59 124
59 129
59 144
59 153
59 194
59 210
59 215
59 240
59 241
59 251
59 252
59 259
59 260
59 471
59 478
60 85
60 130
60 154
60 189
60 195
60 260
60 461
60 472
60 492
60 513
60 520
61 87
61 125
61 146
61 156
61 190
61 196
61 212
61 227
61 242
61 261
61 474
62 88
62 119
62 126
62 134
62 147
62 180
62 191
62 214
62 217
62 228
62 241
62 243
62 253
62 254
62 484
62 521
63 83
63 120
63 135
63 149
63 181
63 192
63 202
63 262
63 461
63 467
63 514
63 521
64 127
64 151
64 182
64 193
64 242
64 263
64 469
64 486
64 495
64 503
64 507
64 515
64 522
65 74
65 101
65 118
65 159
65 245
66 71
66 98
66 117
66 158
66 224
66 246
66 256
67 78
67 93
67 114
67 197
67 222
67 249
67 257
68 75
68 102
68 162
68 228
68 250
68 258
69 82
69 97
69 116
69 166
69 198
69 225
69 253
69 261
70 79
70 94
70 115
70 165
70 221
70 254
70 262
71 101
71 105
71 170
71 178
71 234
71 243
71 245
71 458
71 482
72 96
72 107
72 132
72 171
72 179
72 236
72 244
72 267
72 463
72 483
72 515
72 531
73 103
73 168
73 172
73 233
73 247
73 268
73 466
73 516
73 532
74 98
74 104
74 169
74 173
74 235
74 237
74 246
74 456
74 537
75 93
75 109
75 170
75 174
75 236
75 238
75 249
75 264
75 455
75 485
75 538
76 100
76 171
76 175
76 240
76 248
76 269
76 465
76 517
76 533
77 95
77 106
77 172
77 176
77 237
77 251
77 270
77 462
77 481
77 513
77 529
78 102
78 108
78 173
78 177
78 239
78 241
78 250
78 534
79 97
79 174
79 178
79 240
79 253
79 265
79 457
79 535
80 92
80 175
80 179
80 243
80 252
80 271
80 530
81 99
81 131
81 168
81 176
81 241
81 255
81 272
81 464
81 484
81 514
82 94
82 110
82 169
82 177
82 233
82 242
82 254
82 266
82 454
82 486
82 536
83 141
83 155
83 202
83 256
83 268
83 276
83 523
84 142
84 156
84 207
84 267
84 276
84 526
85 138
85 147
85 206
85 281
85 456
85 518
86 139
86 149
86 258
86 264
86 270
86 282
86 527
87 140
87 150
87 212
87 257
87 269
87 282
87 519
88 142
88 151
88 214
88 259
88 283
88 457
88 528
89 146
89 155
89 211
89 260
89 287
89 521
90 133
90 147
90 213
90 262
90 265
90 272
90 288
90 520
91 134
91 148
91 261
91 266
91 271
91 288
91 522
92 95
92 159
92 184
92 453
92 462
93 102
93 112
93 167
93 196
93 267
94 97
94 111
94 161
94 187
94 268
95 158
95 182
95 487
95 537
96 99
96 189
96 464
96 488
96 538
97 113
97 160
97 185
97 269
98 101
98 112
98 164
98 192
98 270
99 162
99 188
99 463
99 534
100 103
100 166
100 195
100 466
100 487
100 535
101 111
101 163
101 190
101 271
102 113
102 157
102 181
102 272
103 165
103 193
103 453
103 465
103 488
103 536
104 129
104 235
104 267
104 291
105 124
105 131
105 200
105 234
105 268
105 292
106 120
106 230
106 237
106 292
107 125
107 231
107 236
107 293
108 121
108 199
108 239
108 269
108 293
109 128
109 238
109 270
109 294
110 125
110 132
110 201
110 242
110 271
110 295
110 296
111 262
111 266
112 256
112 257
112 264
113 258
113 261
113 265
114 140
114 155
114 222
115 133
115 142
115 221
116 139
116 148
116 223
116 225
117 141
117 150
117 224
117 226
118 147
118 156
118 227
118 296
119 159
119 166
119 205
119 297
119 511
119 536
120 160
120 167
120 217
120 268
120 541
121 157
121 161
121 208
121 223
121 267
121 509
122 158
122 162
122 204
122 224
122 484
122 510
122 538
123 159
123 210
123 222
123 486
123 537
124 160
124 163
124 206
124 270
124 544
125 161
125 164
125 214
125 227
125 269
125 512
125 542
126 162
126 165
126 209
126 228
126 482
126 535
127 166
127 216
127 225
127 296
127 298
127 483
127 507
127 534
128 163
128 167
128 211
128 226
128 272
128 508
128 543
129 157
129 164
129 203
129 271
130 158
130 165
130 215
130 221
130 481
130 485
131 230
131 255
132 244
133 178
133 234
133 262
133 309
133 494
133 496
134 137
134 153
134 170
134 218
134 243
134 275
134 290
134 302
134 310
134 455
134 522
134 524
134 546
135 138
135 154
135 235
135 263
135 273
135 276
135 297
135 456
135 461
135 475
135 514
135 525
135 552
136 139
136 155
136 179
136 199
136 236
136 256
136 274
136 277
136 291
136 299
136 311
136 471
136 476
136 506
136 552
137 142
137 172
137 233
137 275
137 278
137 292
137 299
137 312
137 473
137 478
137 490
137 553
138 143
138 200
138 234
138 276
138 279
138 458
138 474
138 501
138 517
138 524
138 553
139 144
139 169
139 218
139 237
139 277
139 280
139 313
139 454
139 525
139 527
139 540
140 173
140 235
140 257
140 293
140 303
140 495
140 497
141 170
141 238
141 256
141 292
141 492
141 496
142 145
142 174
142 219
142 236
142 278
142 281
142 303
142 304
142 314
142 457
142 526
142 528
143 146
143 199
143 239
143 279
143 282
143 304
143 459
143 467
143 516
143 518
143 544
143 554
144 147
144 171
144 201
144 240
144 258
144 280
144 283
144 293
144 300
144 315
144 468
144 475
144 542
144 554
144 555
145 150
145 176
145 200
145 237
145 257
145 259
145 281
145 284
145 294
145 300
145 316
145 470
145 477
145 491
145 544
145 547
145 548
146 151
146 238
146 260
146 282
146 285
146 305
146 455
146 478
146 528
146 542
146 548
147 152
147 173
147 219
147 241
147 283
147 286
147 298
147 305
147 306
147 317
147 456
147 500
147 518
147 520
147 545
148 177
148 239
148 261
148 295
148 493
148 497
149 174
149 258
149 294
149 306
149 492
149 494
150 153
150 178
150 220
150 240
150 284
150 287
150 307
150 318
150 458
150 519
150 539
150 545
151 154
151 201
151 242
151 259
151 285
151 288
151 298
151 307
151 454
151 471
151 513
151 521
151 543
151 549
152 155
152 175
152 243
152 260
152 262
152 286
152 289
152 295
152 301
152 319
152 467
152 472
152 489
152 549
153 168
153 241
153 261
153 263
153 287
153 290
153 301
153 320
153 469
153 474
153 506
153 543
153 550
153 551
154 273
154 288
154 308
154 457
154 460
154 470
154 500
154 515
154 551
155 177
155 220
155 233
155 274
155 289
155 297
155 308
155 309
155 321
155 501
155 521
155 523
155 546
156 169
156 242
156 291
156 302
156 493
156 495
157 255
157 267
157 302
157 463
157 511
157 552
157 557
158 246
158 461
158 498
159 223
159 245
159 499
159 509
159 537
160 224
160 248
160 268
160 466
160 510
160 553
161 197
161 222
161 247
161 269
161 303
161 465
161 554
162 250
162 304
162 459
162 538
162 555
163 228
163 252
163 270
163 306
163 462
163 548
164 198
164 225
164 251
164 271
164 507
164 549
165 226
165 254
165 307
165 508
165 535
166 253
166 308
166 460
166 536
166 550
167 221
167 244
167 272
167 309
167 464
167 551
167 556
168 183
168 195
168 496
168 508
168 510
168 556
169 180
169 185
169 222
169 291
169 540
170 181
170 186
170 221
170 292
171 183
171 188
171 293
171 495
171 511
171 512
171 533
171 540
172 184
172 292
172 453
172 492
172 532
173 186
173 190
173 223
173 225
173 293
174 187
174 191
174 224
174 226
174 264
174 294
175 193
175 295
175 453
175 497
175 530
176 189
176 194
176 294
176 494
176 529
176 539
177 191
177 196
177 227
177 266
177 295
178 180
178 192
178 228
178 265
178 539
179 182
179 194
179 291
179 493
179 507
179 509
179 531
179 557
180 204
180 216
180 245
180 254
180 308
180 456
180 457
181 290
181 309
181 505
181 552
182 277
183 203
183 206
183 244
183 247
183 552
183 553
184 275
185 280
185 303
185 457
185 504
185 553
186 205
186 209
186 246
186 249
186 304
186 458
187 278
187 454
187 502
187 554
188 207
188 283
188 304
188 547
189 213
189 281
189 305
189 555
190 286
190 458
190 548
191 210
191 215
191 250
191 253
191 305
191 307
191 454
191 455
192 284
192 306
192 456
192 549
193 212
193 289
193 307
193 550
194 214
194 217
194 252
194 255
194 549
194 551
195 202
195 287
195 308
196 274
196 302
196 455
196 503
196 551
197 257
198 261
198 506
199 229
199 248
200 232
200 247
200 458
200 544
201 231
201 252
201 298
201 454
201 542
202 234
202 262
202 308
203 229
203 243
203 321
203 524
203 552
204 236
204 312
204 457
204 475
205 233
205 311
205 474
206 230
206 237
206 314
206 525
206 553
207 235
207 257
207 304
208 231
208 236
208 313
208 528
208 554
209 240
209 304
209 316
209 458
209 467
210 237
210 259
210 305
210 315
210 454
210 478
211 232
211 241
211 318
211 518
211 548
212 239
212 261
212 307
213 258
213 305
214 240
214 317
214 549
215 243
215 260
215 307
215 320
215 455
215 471
216 241
216 263
216 296
216 308
216 319
216 456
216 470
217 233
217 310
217 521
217 541
217 551
218 420
219 422
219 499
220 424
220 498
221 230
221 309
222 229
222 303
224 232
225 231
225 298
226 265
226 307
227 296
227 305
228 306
229 291
230 292
231 293
232 294
233 263
233 268
233 299
233 486
233 525
233 536
233 546
234 256
236 267
236 299
236 485
236 524
236 538
237 270
237 300
237 518
237 537
238 258
239 257
239 259
240 260
240 269
240 300
240 528
240 535
240 545
241 259
241 272
241 301
241 521
241 534
241 545
242 261
242 263
242 296
243 271
243 301
243 482
243 546
244 255
244 267
244 464
244 556
245 246
245 297
246 501
246 537
247 248
247 268
247 465
248 269
248 466
248 544
249 250
249 538
250 534
251 252
251 270
251 542
252 271
252 462
252 543
253 254
253 298
253 535
254 500
254 536
255 272
255 463
255 557
256 279
256 476
257 279
257 303
257 477
257 547
258 285
258 306
258 468
258 555
259 283
259 307
259 322
259 470
259 548
260 287
260 305
260 322
260 467
260 549
261 285
261 469
261 550
262 273
262 309
262 472
263 289
263 474
263 551
264 270
265 272
265 545
266 271
266 546
267 291
268 292
269 293
270 294
271 295
273 472
273 473
274 290
274 311
274 321
274 474
274 524
275 277
275 310
275 312
275 480
275 559
276 523
276 526
277 311
277 313
277 480
277 559
278 280
278 312
278 314
278 475
278 525
279 476
279 477
280 313
280 315
280 478
280 528
281 283
281 314
281 316
281 558
282 519
282 527
283 315
283 317
283 558
284 286
284 316
284 318
284 322
284 467
284 518
285 468
285 469
286 317
286 319
286 322
286 470
287 289
287 318
287 320
287 479
288 520
288 522
289 319
289 321
289 479
290 310
290 320
290 471
290 521
296 298
297 308
297 501
297 552
298 305
298 500
298 549
299 375
299 531
299 532
300 376
300 529
300 533
301 378
301 530
302 522
303 526
304 528
304 544
305 322
305 518
305 542
306 520
307 322
307 543
308 521
309 523
310 425
311 426
312 427
313 428
314 429
315 430
316 431
317 432
318 433
319 434
320 435
321 436
323 337
323 342
323 351
323 355
323 367
324 339
324 340
324 343
324 356
324 371
325 334
325 335
325 340
325 346
325 353
325 358
325 364
325 373
325 374
325 375
325 379
325 380
325 391
326 335
326 336
326 341
326 343
326 348
326 363
326 366
326 375
326 381
326 382
326 392
326 563
327 331
327 336
327 338
327 345
327 350
327 359
327 365
327 368
327 376
327 383
327 384
327 393
327 562
328 331
328 332
328 342
328 347
328 352
328 360
328 361
328 367
328 370
328 376
328 377
328 385
328 386
328 394
329 332
329 333
329 337
329 349
329 354
329 369
329 372
329 377
329 378
329 387
329 388
329 395
330 333
330 334
330 339
330 344
330 351
330 357
330 362
330 371
330 374
330 378
330 389
330 390
330 396
331 333
331 335
331 345
331 352
331 363
331 372
331 391
331 396
331 402
331 562
331 564
331 565
332 334
332 336
332 342
332 347
332 354
332 355
332 362
332 365
332 391
332 392
332 397
333 335
333 337
333 344
333 349
333 364
333 367
333 392
333 393
333 398
333 565
334 336
334 339
334 346
334 351
334 355
334 356
334 366
334 369
334 393
334 394
334 566
335 340
335 348
335 353
335 368
335 371
335 394
335 395
335 399
335 400
335 563
335 564
336 338
336 341
336 343
336 350
336 356
336 370
336 373
336 395
336 396
336 401
337 353
337 364
337 390
337 397
337 402
337 403
338 346
338 359
338 373
338 381
338 404
339 343
339 357
339 366
339 380
339 397
339 398
339 405
340 345
340 358
340 368
340 382
340 398
340 407
340 560
340 566
341 347
341 370
341 384
341 399
341 409
341 560
341 566
342 351
342 361
342 362
342 388
342 401
342 402
342 413
342 561
343 345
343 353
343 375
343 396
343 397
343 404
343 414
343 415
343 419
343 425
344 346
344 354
344 374
344 392
344 403
344 405
344 415
344 420
344 426
344 563
345 347
345 391
345 398
345 404
345 406
345 420
345 427
345 560
346 348
346 375
346 393
346 405
346 407
346 421
346 428
347 349
347 376
347 392
347 406
347 408
347 416
347 421
347 429
347 566
348 350
348 394
348 407
348 409
348 416
348 422
348 430
349 351
349 377
349 393
349 399
349 408
349 410
349 417
349 422
349 431
349 561
349 562
350 352
350 376
350 395
350 409
350 411
350 417
350 423
350 432
351 353
351 378
351 394
351 401
351 410
351 412
351 423
351 433
352 354
352 377
352 396
352 400
352 411
352 413
352 424
352 434
353 374
353 395
353 402
353 412
353 414
353 418
353 424
353 435
354 378
354 391
354 403
354 413
354 418
354 419
354 436
355 364
355 367
356 368
356 371
357 364
357 390
357 419
357 426
358 366
358 380
358 420
358 428
359 363
359 383
359 421
359 427
360 365
360 385
360 422
360 429
360 561
361 372
361 386
361 423
361 434
362 396
362 397
362 436
362 437
362 565
363 392
363 427
363 568
364 391
364 398
364 426
365 393
365 429
365 561
365 565
366 392
366 428
366 438
366 566
367 394
367 431
368 393
368 399
368 430
368 567
369 395
369 433
369 439
370 394
370 401
370 432
370 564
371 396
371 400
371 435
371 563
372 395
372 402
372 434
372 440
372 562
373 391
373 425
373 560
373 564
374 380
374 389
374 415
374 418
374 437
374 546
375 379
375 382
375 415
375 568
376 383
376 386
376 416
376 417
376 567
377 385
377 388
377 417
377 439
377 545
378 387
378 390
378 418
378 440
379 414
379 426
379 441
379 563
380 405
380 425
380 442
381 404
381 428
381 443
382 407
382 427
382 444
383 406
383 430
383 445
384 409
384 429
384 446
385 408
385 432
385 447
386 411
386 431
386 448
386 562
387 410
387 434
387 449
388 413
388 433
388 450
389 412
389 436
389 451
390 403
390 435
390 452
391 402
391 419
391 420
391 437
391 441
391 442
391 568
392 397
392 420
392 421
392 443
392 444
393 398
393 421
393 422
393 438
393 445
393 446
394 400
394 422
394 423
394 439
394 447
394 448
394 566
394 567
395 399
395 423
395 424
395 449
395 450
396 401
396 419
396 424
396 440
396 451
396 452
397 403
397 442
398 405
398 438
398 444
399 409
399 448
399 562
400 412
400 439
400 449
401 411
401 440
401 450
401 562
402 413
402 437
402 452
403 414
403 426
403 436
403 442
404 405
404 425
404 427
404 441
405 426
405 428
405 444
406 407
406 427
406 429
406 443
407 428
407 430
407 446
407 566
408 409
408 429
408 431
408 445
409 430
409 432
409 448
410 411
410 431
410 433
410 447
411 432
411 434
411 450
411 562
412 413
412 433
412 435
412 449
413 434
413 436
413 452
414 425
414 435
414 451
414 563
415 419
415 420
416 421
416 422
417 422
417 423
418 419
418 424
419 441
419 452
419 506
420 442
420 443
421 444
421 445
422 446
422 447
423 448
423 449
424 450
424 451
425 442
426 441
427 444
427 568
428 438
428 443
429 446
430 445
430 567
431 448
432 447
433 439
433 450
434 440
434 449
435 452
436 437
436 451
437 442
438 446
439 447
440 452
441 568
446 566
448 567
453 472
453 473
453 488
453 499
454 471
454 480
454 486
454 502
455 478
455 480
455 485
455 503
456 475
456 500
457 470
457 504
458 474
458 479
458 482
459 471
459 476
459 494
459 502
459 513
460 473
460 478
460 497
460 503
461 467
461 472
461 492
461 505
461 516
462 490
462 508
462 520
463 522
464 491
464 498
464 523
465 489
465 499
465 509
465 526
466 527
467 479
467 518
468 494
468 502
468 520
468 529
468 535
469 497
469 503
469 519
469 530
469 534
471 480
471 521
472 496
472 523
473 493
473 504
473 522
473 531
473 536
474 479
474 524
475 525
476 492
476 505
476 527
476 532
476 538
477 495
477 526
477 533
477 537
478 480
478 528
481 513
481 535
481 539
482 498
482 539
483 500
483 515
483 536
484 514
484 541
486 540
487 519
487 527
487 529
487 533
488 523
488 526
488 531
488 532
489 495
489 507
489 509
490 494
490 508
490 510
490 541
491 496
492 513
492 527
492 555
493 522
493 550
494 514
494 520
494 539
495 515
495 526
495 540
496 516
496 523
497 517
497 519
497 547
498 523
499 526
502 513
502 527
502 554
503 522
503 551
504 515
504 526
504 553
505 516
505 523
505 552
507 530
507 549
508 543
508 556
509 557
510 532
510 541
510 553
511 531
511 552
512 542
512 547
513 518
513 520
514 521
514 523
514 541
515 522
515 524
516 525
516 527
517 526
517 528
518 554
518 558
519 547
521 549
522 550
524 553
524 559
525 552
525 559
527 555
528 548
528 558
529 535
530 534
531 536
532 538
533 537
535 539
537 540
541 556
542 554
543 551
544 548
548 558
551 556
552 557
552 559
553 559
554 558
560 564
561 562
561 565
566 567
