p cnf 68 136
1 2 9 0
-1 -2 -9 0
1 5 12 0
-1 -5 -12 0
1 8 15 0
-1 -8 -15 0
2 3 17 0
-2 -3 -17 0
2 7 21 0
-2 -7 -21 0
3 4 30 0
-3 -4 -30 0
3 6 32 0
-3 -6 -32 0
4 5 48 0
-4 -5 -48 0
4 8 51 0
-4 -8 -51 0
5 6 54 0
-5 -6 -54 0
6 7 65 0
-6 -7 -65 0
7 8 68 0
-7 -8 -68 0
9 10 16 0
-9 -10 -16 0
9 13 19 0
-9 -13 -19 0
10 11 23 0
-10 -11 -23 0
10 15 27 0
-10 -15 -27 0
11 12 35 0
-11 -12 -35 0
11 14 37 0
-11 -14 -37 0
12 13 52 0
-12 -13 -52 0
13 14 57 0
-13 -14 -57 0
14 15 67 0
-14 -15 -67 0
16 17 22 0
-16 -17 -22 0
16 20 25 0
-16 -20 -25 0
17 18 29 0
-17 -18 -29 0
18 19 40 0
-18 -19 -40 0
18 21 42 0
-18 -21 -42 0
19 20 55 0
-19 -20 -55 0
20 21 60 0
-20 -21 -60 0
22 23 28 0
-22 -23 -28 0
22 26 31 0
-22 -26 -31 0
23 24 34 0
-23 -24 -34 0
24 25 45 0
-24 -25 -45 0
24 27 47 0
-24 -27 -47 0
25 26 58 0
-25 -26 -58 0
26 27 63 0
-26 -27 -63 0
28 29 33 0
-28 -29 -33 0
28 32 36 0
-28 -32 -36 0
29 30 39 0
-29 -30 -39 0
30 31 50 0
-30 -31 -50 0
31 32 61 0
-31 -32 -61 0
33 34 38 0
-33 -34 -38 0
33 37 41 0
-33 -37 -41 0
34 35 44 0
-34 -35 -44 0
35 36 54 0
-35 -36 -54 0
36 37 64 0
-36 -37 -64 0
38 39 43 0
-38 -39 -43 0
38 42 46 0
-38 -42 -46 0
39 40 49 0
-39 -40 -49 0
40 41 57 0
-40 -41 -57 0
41 42 66 0
-41 -42 -66 0
43 44 48 0
-43 -44 -48 0
43 47 51 0
-43 -47 -51 0
44 45 53 0
-44 -45 -53 0
45 46 60 0
-45 -46 -60 0
46 47 68 0
-46 -47 -68 0
48 49 52 0
-48 -49 -52 0
49 50 56 0
-49 -50 -56 0
50 51 63 0
-50 -51 -63 0
52 53 55 0
-52 -53 -55 0
53 54 59 0
-53 -54 -59 0
55 56 58 0
-55 -56 -58 0
56 57 62 0
-56 -57 -62 0
58 59 61 0
-58 -59 -61 0
59 60 65 0
-59 -60 -65 0
61 62 64 0
-61 -62 -64 0
62 63 67 0
-62 -63 -67 0
64 65 66 0
-64 -65 -66 0
66 67 68 0
-66 -67 -68 0
