p cnf 610 2440
1 4 23 0
-1 -4 -23 0
1 8 27 0
-1 -8 -27 0
1 10 29 0
-1 -10 -29 0
1 12 31 0
-1 -12 -31 0
1 14 33 0
-1 -14 -33 0
1 18 37 0
-1 -18 -37 0
2 5 61 0
-2 -5 -61 0
2 7 64 0
-2 -7 -64 0
2 9 66 0
-2 -9 -66 0
2 13 70 0
-2 -13 -70 0
2 15 72 0
-2 -15 -72 0
2 18 74 0
-2 -18 -74 0
3 4 149 0
-3 -4 -149 0
3 5 150 0
-3 -5 -150 0
3 10 154 0
-3 -10 -154 0
3 15 159 0
-3 -15 -159 0
3 19 164 0
-3 -19 -164 0
3 20 165 0
-3 -20 -165 0
4 6 170 0
-4 -6 -170 0
4 11 173 0
-4 -11 -173 0
4 13 175 0
-4 -13 -175 0
4 16 180 0
-4 -16 -180 0
5 6 201 0
-5 -6 -201 0
5 12 204 0
-5 -12 -204 0
5 14 206 0
-5 -14 -206 0
5 17 212 0
-5 -17 -212 0
6 7 334 0
-6 -7 -334 0
6 10 335 0
-6 -10 -335 0
6 18 343 0
-6 -18 -343 0
6 19 346 0
-6 -19 -346 0
7 8 375 0
-7 -8 -375 0
7 12 379 0
-7 -12 -379 0
7 16 383 0
-7 -16 -383 0
7 20 387 0
-7 -20 -387 0
8 9 389 0
-8 -9 -389 0
8 11 391 0
-8 -11 -391 0
8 17 397 0
-8 -17 -397 0
8 19 399 0
-8 -19 -399 0
9 10 424 0
-9 -10 -424 0
9 14 428 0
-9 -14 -428 0
9 16 430 0
-9 -16 -430 0
9 20 434 0
-9 -20 -434 0
10 13 438 0
-10 -13 -438 0
10 17 442 0
-10 -17 -442 0
11 12 485 0
-11 -12 -485 0
11 15 487 0
-11 -15 -487 0
11 18 490 0
-11 -18 -490 0
11 20 493 0
-11 -20 -493 0
12 13 495 0
-12 -13 -495 0
12 19 501 0
-12 -19 -501 0
13 14 518 0
-13 -14 -518 0
13 20 524 0
-13 -20 -524 0
14 15 526 0
-14 -15 -526 0
14 19 530 0
-14 -19 -530 0
15 16 546 0
-15 -16 -546 0
15 17 547 0
-15 -17 -547 0
16 18 589 0
-16 -18 -589 0
16 19 590 0
-16 -19 -590 0
17 18 596 0
-17 -18 -596 0
17 20 598 0
-17 -20 -598 0
21 24 42 0
-21 -24 -42 0
21 28 46 0
-21 -28 -46 0
21 30 48 0
-21 -30 -48 0
21 32 50 0
-21 -32 -50 0
21 34 52 0
-21 -34 -52 0
21 38 56 0
-21 -38 -56 0
22 25 79 0
-22 -25 -79 0
22 27 82 0
-22 -27 -82 0
22 29 84 0
-22 -29 -84 0
22 33 88 0
-22 -33 -88 0
22 35 90 0
-22 -35 -90 0
22 38 92 0
-22 -38 -92 0
23 24 166 0
-23 -24 -166 0
23 25 167 0
-23 -25 -167 0
23 30 171 0
-23 -30 -171 0
23 35 176 0
-23 -35 -176 0
23 39 181 0
-23 -39 -181 0
24 26 186 0
-24 -26 -186 0
24 31 189 0
-24 -31 -189 0
24 33 191 0
-24 -33 -191 0
24 36 196 0
-24 -36 -196 0
25 26 216 0
-25 -26 -216 0
25 32 219 0
-25 -32 -219 0
25 34 221 0
-25 -34 -221 0
25 37 227 0
-25 -37 -227 0
26 27 348 0
-26 -27 -348 0
26 30 349 0
-26 -30 -349 0
26 38 357 0
-26 -38 -357 0
26 39 360 0
-26 -39 -360 0
27 28 388 0
-27 -28 -388 0
27 32 392 0
-27 -32 -392 0
27 36 396 0
-27 -36 -396 0
28 29 401 0
-28 -29 -401 0
28 31 403 0
-28 -31 -403 0
28 37 409 0
-28 -37 -409 0
28 39 411 0
-28 -39 -411 0
29 30 435 0
-29 -30 -435 0
29 34 439 0
-29 -34 -439 0
29 36 441 0
-29 -36 -441 0
30 33 448 0
-30 -33 -448 0
30 37 452 0
-30 -37 -452 0
31 32 494 0
-31 -32 -494 0
31 35 496 0
-31 -35 -496 0
31 38 499 0
-31 -38 -499 0
32 33 503 0
-32 -33 -503 0
32 39 509 0
-32 -39 -509 0
33 34 525 0
-33 -34 -525 0
34 35 532 0
-34 -35 -532 0
34 39 536 0
-34 -39 -536 0
35 36 551 0
-35 -36 -551 0
35 37 552 0
-35 -37 -552 0
36 38 593 0
-36 -38 -593 0
36 39 594 0
-36 -39 -594 0
37 38 599 0
-37 -38 -599 0
40 43 61 0
-40 -43 -61 0
40 47 65 0
-40 -47 -65 0
40 49 67 0
-40 -49 -67 0
40 51 69 0
-40 -51 -69 0
40 53 71 0
-40 -53 -71 0
40 57 75 0
-40 -57 -75 0
41 44 97 0
-41 -44 -97 0
41 46 100 0
-41 -46 -100 0
41 48 102 0
-41 -48 -102 0
41 52 106 0
-41 -52 -106 0
41 54 108 0
-41 -54 -108 0
41 57 110 0
-41 -57 -110 0
42 43 182 0
-42 -43 -182 0
42 44 183 0
-42 -44 -183 0
42 49 187 0
-42 -49 -187 0
42 54 192 0
-42 -54 -192 0
42 58 197 0
-42 -58 -197 0
43 45 202 0
-43 -45 -202 0
43 50 205 0
-43 -50 -205 0
43 52 207 0
-43 -52 -207 0
43 55 212 0
-43 -55 -212 0
44 45 231 0
-44 -45 -231 0
44 51 234 0
-44 -51 -234 0
44 53 236 0
-44 -53 -236 0
44 56 242 0
-44 -56 -242 0
45 46 362 0
-45 -46 -362 0
45 49 363 0
-45 -49 -363 0
45 57 371 0
-45 -57 -371 0
45 58 374 0
-45 -58 -374 0
46 47 400 0
-46 -47 -400 0
46 51 404 0
-46 -51 -404 0
46 55 408 0
-46 -55 -408 0
47 48 413 0
-47 -48 -413 0
47 50 415 0
-47 -50 -415 0
47 56 421 0
-47 -56 -421 0
47 58 423 0
-47 -58 -423 0
48 49 445 0
-48 -49 -445 0
48 53 449 0
-48 -53 -449 0
48 55 451 0
-48 -55 -451 0
49 52 458 0
-49 -52 -458 0
49 56 462 0
-49 -56 -462 0
50 51 502 0
-50 -51 -502 0
50 54 504 0
-50 -54 -504 0
50 57 507 0
-50 -57 -507 0
51 52 511 0
-51 -52 -511 0
51 58 517 0
-51 -58 -517 0
52 53 531 0
-52 -53 -531 0
53 54 538 0
-53 -54 -538 0
53 58 542 0
-53 -58 -542 0
54 55 556 0
-54 -55 -556 0
54 56 557 0
-54 -56 -557 0
55 57 597 0
-55 -57 -597 0
55 58 598 0
-55 -58 -598 0
56 57 601 0
-56 -57 -601 0
59 62 79 0
-59 -62 -79 0
59 66 83 0
-59 -66 -83 0
59 68 85 0
-59 -68 -85 0
59 70 87 0
-59 -70 -87 0
59 72 89 0
-59 -72 -89 0
59 76 93 0
-59 -76 -93 0
60 63 115 0
-60 -63 -115 0
60 65 118 0
-60 -65 -118 0
60 67 120 0
-60 -67 -120 0
60 71 124 0
-60 -71 -124 0
60 73 126 0
-60 -73 -126 0
60 76 128 0
-60 -76 -128 0
61 62 198 0
-61 -62 -198 0
61 63 199 0
-61 -63 -199 0
61 68 203 0
-61 -68 -203 0
61 73 208 0
-61 -73 -208 0
62 64 217 0
-62 -64 -217 0
62 69 220 0
-62 -69 -220 0
62 71 222 0
-62 -71 -222 0
62 74 227 0
-62 -74 -227 0
63 64 246 0
-63 -64 -246 0
63 70 249 0
-63 -70 -249 0
63 72 251 0
-63 -72 -251 0
63 75 257 0
-63 -75 -257 0
64 65 376 0
-64 -65 -376 0
64 68 377 0
-64 -68 -377 0
64 76 385 0
-64 -76 -385 0
65 66 412 0
-65 -66 -412 0
65 70 416 0
-65 -70 -416 0
65 74 420 0
-65 -74 -420 0
66 67 425 0
-66 -67 -425 0
66 69 427 0
-66 -69 -427 0
66 75 433 0
-66 -75 -433 0
67 68 455 0
-67 -68 -455 0
67 72 459 0
-67 -72 -459 0
67 74 461 0
-67 -74 -461 0
68 71 468 0
-68 -71 -468 0
68 75 472 0
-68 -75 -472 0
69 70 510 0
-69 -70 -510 0
69 73 512 0
-69 -73 -512 0
69 76 515 0
-69 -76 -515 0
70 71 519 0
-70 -71 -519 0
71 72 537 0
-71 -72 -537 0
72 73 544 0
-72 -73 -544 0
73 74 561 0
-73 -74 -561 0
73 75 562 0
-73 -75 -562 0
74 76 600 0
-74 -76 -600 0
75 76 603 0
-75 -76 -603 0
77 80 97 0
-77 -80 -97 0
77 84 101 0
-77 -84 -101 0
77 86 103 0
-77 -86 -103 0
77 88 105 0
-77 -88 -105 0
77 90 107 0
-77 -90 -107 0
77 94 111 0
-77 -94 -111 0
78 81 133 0
-78 -81 -133 0
78 83 136 0
-78 -83 -136 0
78 85 138 0
-78 -85 -138 0
78 89 142 0
-78 -89 -142 0
78 91 144 0
-78 -91 -144 0
78 94 146 0
-78 -94 -146 0
79 80 213 0
-79 -80 -213 0
79 81 214 0
-79 -81 -214 0
79 86 218 0
-79 -86 -218 0
79 91 223 0
-79 -91 -223 0
80 82 232 0
-80 -82 -232 0
80 87 235 0
-80 -87 -235 0
80 89 237 0
-80 -89 -237 0
80 92 242 0
-80 -92 -242 0
81 82 261 0
-81 -82 -261 0
81 88 264 0
-81 -88 -264 0
81 90 266 0
-81 -90 -266 0
81 93 272 0
-81 -93 -272 0
82 83 389 0
-82 -83 -389 0
82 86 390 0
-82 -86 -390 0
82 94 398 0
-82 -94 -398 0
83 84 424 0
-83 -84 -424 0
83 88 428 0
-83 -88 -428 0
83 92 432 0
-83 -92 -432 0
84 85 436 0
-84 -85 -436 0
84 87 438 0
-84 -87 -438 0
84 93 444 0
-84 -93 -444 0
85 86 465 0
-85 -86 -465 0
85 90 469 0
-85 -90 -469 0
85 92 471 0
-85 -92 -471 0
86 89 478 0
-86 -89 -478 0
86 93 482 0
-86 -93 -482 0
87 88 518 0
-87 -88 -518 0
87 91 520 0
-87 -91 -520 0
87 94 523 0
-87 -94 -523 0
88 89 526 0
-88 -89 -526 0
89 90 543 0
-89 -90 -543 0
90 91 549 0
-90 -91 -549 0
91 92 566 0
-91 -92 -566 0
91 93 567 0
-91 -93 -567 0
92 94 602 0
-92 -94 -602 0
93 94 605 0
-93 -94 -605 0
95 98 115 0
-95 -98 -115 0
95 102 119 0
-95 -102 -119 0
95 104 121 0
-95 -104 -121 0
95 106 123 0
-95 -106 -123 0
95 108 125 0
-95 -108 -125 0
95 112 129 0
-95 -112 -129 0
96 99 151 0
-96 -99 -151 0
96 101 154 0
-96 -101 -154 0
96 103 156 0
-96 -103 -156 0
96 107 160 0
-96 -107 -160 0
96 109 162 0
-96 -109 -162 0
96 112 164 0
-96 -112 -164 0
97 98 228 0
-97 -98 -228 0
97 99 229 0
-97 -99 -229 0
97 104 233 0
-97 -104 -233 0
97 109 238 0
-97 -109 -238 0
98 100 247 0
-98 -100 -247 0
98 105 250 0
-98 -105 -250 0
98 107 252 0
-98 -107 -252 0
98 110 257 0
-98 -110 -257 0
99 100 276 0
-99 -100 -276 0
99 106 279 0
-99 -106 -279 0
99 108 281 0
-99 -108 -281 0
99 111 287 0
-99 -111 -287 0
100 101 401 0
-100 -101 -401 0
100 104 402 0
-100 -104 -402 0
100 112 410 0
-100 -112 -410 0
101 102 435 0
-101 -102 -435 0
101 106 439 0
-101 -106 -439 0
101 110 443 0
-101 -110 -443 0
102 103 446 0
-102 -103 -446 0
102 105 448 0
-102 -105 -448 0
102 111 454 0
-102 -111 -454 0
103 104 475 0
-103 -104 -475 0
103 108 479 0
-103 -108 -479 0
103 110 481 0
-103 -110 -481 0
104 107 488 0
-104 -107 -488 0
104 111 492 0
-104 -111 -492 0
105 106 525 0
-105 -106 -525 0
105 109 527 0
-105 -109 -527 0
105 112 530 0
-105 -112 -530 0
106 107 532 0
-106 -107 -532 0
107 108 548 0
-107 -108 -548 0
108 109 554 0
-108 -109 -554 0
109 110 571 0
-109 -110 -571 0
109 111 572 0
-109 -111 -572 0
110 112 604 0
-110 -112 -604 0
111 112 607 0
-111 -112 -607 0
113 116 133 0
-113 -116 -133 0
113 120 137 0
-113 -120 -137 0
113 122 139 0
-113 -122 -139 0
113 124 141 0
-113 -124 -141 0
113 126 143 0
-113 -126 -143 0
113 130 147 0
-113 -130 -147 0
114 117 168 0
-114 -117 -168 0
114 119 171 0
-114 -119 -171 0
114 121 173 0
-114 -121 -173 0
114 125 177 0
-114 -125 -177 0
114 127 179 0
-114 -127 -179 0
114 130 181 0
-114 -130 -181 0
115 116 243 0
-115 -116 -243 0
115 117 244 0
-115 -117 -244 0
115 122 248 0
-115 -122 -248 0
115 127 253 0
-115 -127 -253 0
116 118 262 0
-116 -118 -262 0
116 123 265 0
-116 -123 -265 0
116 125 267 0
-116 -125 -267 0
116 128 272 0
-116 -128 -272 0
117 118 291 0
-117 -118 -291 0
117 124 294 0
-117 -124 -294 0
117 126 296 0
-117 -126 -296 0
117 129 302 0
-117 -129 -302 0
118 119 413 0
-118 -119 -413 0
118 122 414 0
-118 -122 -414 0
118 130 422 0
-118 -130 -422 0
119 120 445 0
-119 -120 -445 0
119 124 449 0
-119 -124 -449 0
119 128 453 0
-119 -128 -453 0
120 121 456 0
-120 -121 -456 0
120 123 458 0
-120 -123 -458 0
120 129 464 0
-120 -129 -464 0
121 122 485 0
-121 -122 -485 0
121 126 489 0
-121 -126 -489 0
121 128 491 0
-121 -128 -491 0
122 125 497 0
-122 -125 -497 0
122 129 501 0
-122 -129 -501 0
123 124 531 0
-123 -124 -531 0
123 127 533 0
-123 -127 -533 0
123 130 536 0
-123 -130 -536 0
124 125 538 0
-124 -125 -538 0
125 126 553 0
-125 -126 -553 0
126 127 559 0
-126 -127 -559 0
127 128 576 0
-127 -128 -576 0
127 129 577 0
-127 -129 -577 0
128 130 606 0
-128 -130 -606 0
129 130 609 0
-129 -130 -609 0
131 134 151 0
-131 -134 -151 0
131 138 155 0
-131 -138 -155 0
131 140 157 0
-131 -140 -157 0
131 142 159 0
-131 -142 -159 0
131 144 161 0
-131 -144 -161 0
131 148 165 0
-131 -148 -165 0
132 135 184 0
-132 -135 -184 0
132 137 187 0
-132 -137 -187 0
132 139 189 0
-132 -139 -189 0
132 143 193 0
-132 -143 -193 0
132 145 195 0
-132 -145 -195 0
132 148 197 0
-132 -148 -197 0
133 134 258 0
-133 -134 -258 0
133 135 259 0
-133 -135 -259 0
133 140 263 0
-133 -140 -263 0
133 145 268 0
-133 -145 -268 0
134 136 277 0
-134 -136 -277 0
134 141 280 0
-134 -141 -280 0
134 143 282 0
-134 -143 -282 0
134 146 287 0
-134 -146 -287 0
135 136 306 0
-135 -136 -306 0
135 142 309 0
-135 -142 -309 0
135 144 311 0
-135 -144 -311 0
135 147 317 0
-135 -147 -317 0
136 137 425 0
-136 -137 -425 0
136 140 426 0
-136 -140 -426 0
136 148 434 0
-136 -148 -434 0
137 138 455 0
-137 -138 -455 0
137 142 459 0
-137 -142 -459 0
137 146 463 0
-137 -146 -463 0
138 139 466 0
-138 -139 -466 0
138 141 468 0
-138 -141 -468 0
138 147 474 0
-138 -147 -474 0
139 140 494 0
-139 -140 -494 0
139 144 498 0
-139 -144 -498 0
139 146 500 0
-139 -146 -500 0
140 143 505 0
-140 -143 -505 0
140 147 509 0
-140 -147 -509 0
141 142 537 0
-141 -142 -537 0
141 145 539 0
-141 -145 -539 0
141 148 542 0
-141 -148 -542 0
142 143 544 0
-142 -143 -544 0
143 144 558 0
-143 -144 -558 0
144 145 564 0
-144 -145 -564 0
145 146 581 0
-145 -146 -581 0
145 147 582 0
-145 -147 -582 0
146 148 608 0
-146 -148 -608 0
147 148 610 0
-147 -148 -610 0
149 152 168 0
-149 -152 -168 0
149 156 172 0
-149 -156 -172 0
149 158 174 0
-149 -158 -174 0
149 160 176 0
-149 -160 -176 0
149 162 178 0
-149 -162 -178 0
150 153 200 0
-150 -153 -200 0
150 155 203 0
-150 -155 -203 0
150 157 205 0
-150 -157 -205 0
150 161 209 0
-150 -161 -209 0
150 163 211 0
-150 -163 -211 0
151 152 273 0
-151 -152 -273 0
151 153 274 0
-151 -153 -274 0
151 158 278 0
-151 -158 -278 0
151 163 283 0
-151 -163 -283 0
152 154 292 0
-152 -154 -292 0
152 159 295 0
-152 -159 -295 0
152 161 297 0
-152 -161 -297 0
152 164 302 0
-152 -164 -302 0
153 154 321 0
-153 -154 -321 0
153 160 324 0
-153 -160 -324 0
153 162 326 0
-153 -162 -326 0
153 165 332 0
-153 -165 -332 0
154 155 436 0
-154 -155 -436 0
154 158 437 0
-154 -158 -437 0
155 156 465 0
-155 -156 -465 0
155 160 469 0
-155 -160 -469 0
155 164 473 0
-155 -164 -473 0
156 157 476 0
-156 -157 -476 0
156 159 478 0
-156 -159 -478 0
156 165 484 0
-156 -165 -484 0
157 158 502 0
-157 -158 -502 0
157 162 506 0
-157 -162 -506 0
157 164 508 0
-157 -164 -508 0
158 161 513 0
-158 -161 -513 0
158 165 517 0
-158 -165 -517 0
159 160 543 0
-159 -160 -543 0
159 163 545 0
-159 -163 -545 0
160 161 549 0
-160 -161 -549 0
161 162 563 0
-161 -162 -563 0
162 163 569 0
-162 -163 -569 0
163 164 586 0
-163 -164 -586 0
163 165 587 0
-163 -165 -587 0
166 169 184 0
-166 -169 -184 0
166 173 188 0
-166 -173 -188 0
166 175 190 0
-166 -175 -190 0
166 177 192 0
-166 -177 -192 0
166 179 194 0
-166 -179 -194 0
167 170 215 0
-167 -170 -215 0
167 172 218 0
-167 -172 -218 0
167 174 220 0
-167 -174 -220 0
167 178 224 0
-167 -178 -224 0
167 180 226 0
-167 -180 -226 0
168 169 288 0
-168 -169 -288 0
168 170 289 0
-168 -170 -289 0
168 175 293 0
-168 -175 -293 0
168 180 298 0
-168 -180 -298 0
169 171 307 0
-169 -171 -307 0
169 176 310 0
-169 -176 -310 0
169 178 312 0
-169 -178 -312 0
169 181 317 0
-169 -181 -317 0
170 171 336 0
-170 -171 -336 0
170 177 339 0
-170 -177 -339 0
170 179 341 0
-170 -179 -341 0
171 172 446 0
-171 -172 -446 0
171 175 447 0
-171 -175 -447 0
172 173 475 0
-172 -173 -475 0
172 177 479 0
-172 -177 -479 0
172 181 483 0
-172 -181 -483 0
173 174 486 0
-173 -174 -486 0
173 176 488 0
-173 -176 -488 0
174 175 510 0
-174 -175 -510 0
174 179 514 0
-174 -179 -514 0
174 181 516 0
-174 -181 -516 0
175 178 521 0
-175 -178 -521 0
176 177 548 0
-176 -177 -548 0
176 180 550 0
-176 -180 -550 0
177 178 554 0
-177 -178 -554 0
178 179 568 0
-178 -179 -568 0
179 180 574 0
-179 -180 -574 0
180 181 591 0
-180 -181 -591 0
182 185 200 0
-182 -185 -200 0
182 189 204 0
-182 -189 -204 0
182 191 206 0
-182 -191 -206 0
182 193 208 0
-182 -193 -208 0
182 195 210 0
-182 -195 -210 0
183 186 230 0
-183 -186 -230 0
183 188 233 0
-183 -188 -233 0
183 190 235 0
-183 -190 -235 0
183 194 239 0
-183 -194 -239 0
183 196 241 0
-183 -196 -241 0
184 185 303 0
-184 -185 -303 0
184 186 304 0
-184 -186 -304 0
184 191 308 0
-184 -191 -308 0
184 196 313 0
-184 -196 -313 0
185 187 322 0
-185 -187 -322 0
185 192 325 0
-185 -192 -325 0
185 194 327 0
-185 -194 -327 0
185 197 332 0
-185 -197 -332 0
186 187 350 0
-186 -187 -350 0
186 193 353 0
-186 -193 -353 0
186 195 355 0
-186 -195 -355 0
187 188 456 0
-187 -188 -456 0
187 191 457 0
-187 -191 -457 0
188 189 485 0
-188 -189 -485 0
188 193 489 0
-188 -193 -489 0
188 197 493 0
-188 -197 -493 0
189 190 495 0
-189 -190 -495 0
189 192 497 0
-189 -192 -497 0
190 191 518 0
-190 -191 -518 0
190 195 522 0
-190 -195 -522 0
190 197 524 0
-190 -197 -524 0
191 194 528 0
-191 -194 -528 0
192 193 553 0
-192 -193 -553 0
192 196 555 0
-192 -196 -555 0
193 194 559 0
-193 -194 -559 0
194 195 573 0
-194 -195 -573 0
195 196 579 0
-195 -196 -579 0
196 197 595 0
-196 -197 -595 0
198 201 215 0
-198 -201 -215 0
198 205 219 0
-198 -205 -219 0
198 207 221 0
-198 -207 -221 0
198 209 223 0
-198 -209 -223 0
198 211 225 0
-198 -211 -225 0
199 202 245 0
-199 -202 -245 0
199 204 248 0
-199 -204 -248 0
199 206 250 0
-199 -206 -250 0
199 210 254 0
-199 -210 -254 0
199 212 256 0
-199 -212 -256 0
200 201 318 0
-200 -201 -318 0
200 202 319 0
-200 -202 -319 0
200 207 323 0
-200 -207 -323 0
200 212 328 0
-200 -212 -328 0
201 203 337 0
-201 -203 -337 0
201 208 340 0
-201 -208 -340 0
201 210 342 0
-201 -210 -342 0
202 203 364 0
-202 -203 -364 0
202 209 367 0
-202 -209 -367 0
202 211 369 0
-202 -211 -369 0
203 204 466 0
-203 -204 -466 0
203 207 467 0
-203 -207 -467 0
204 205 494 0
-204 -205 -494 0
204 209 498 0
-204 -209 -498 0
205 206 503 0
-205 -206 -503 0
205 208 505 0
-205 -208 -505 0
206 207 525 0
-206 -207 -525 0
206 211 529 0
-206 -211 -529 0
207 210 534 0
-207 -210 -534 0
208 209 558 0
-208 -209 -558 0
208 212 560 0
-208 -212 -560 0
209 210 564 0
-209 -210 -564 0
210 211 578 0
-210 -211 -578 0
211 212 584 0
-211 -212 -584 0
213 216 230 0
-213 -216 -230 0
213 220 234 0
-213 -220 -234 0
213 222 236 0
-213 -222 -236 0
213 224 238 0
-213 -224 -238 0
213 226 240 0
-213 -226 -240 0
214 217 260 0
-214 -217 -260 0
214 219 263 0
-214 -219 -263 0
214 221 265 0
-214 -221 -265 0
214 225 269 0
-214 -225 -269 0
214 227 271 0
-214 -227 -271 0
215 216 333 0
-215 -216 -333 0
215 217 334 0
-215 -217 -334 0
215 222 338 0
-215 -222 -338 0
215 227 343 0
-215 -227 -343 0
216 218 351 0
-216 -218 -351 0
216 223 354 0
-216 -223 -354 0
216 225 356 0
-216 -225 -356 0
217 218 378 0
-217 -218 -378 0
217 224 381 0
-217 -224 -381 0
217 226 383 0
-217 -226 -383 0
218 219 476 0
-218 -219 -476 0
218 222 477 0
-218 -222 -477 0
219 220 502 0
-219 -220 -502 0
219 224 506 0
-219 -224 -506 0
220 221 511 0
-220 -221 -511 0
220 223 513 0
-220 -223 -513 0
221 222 531 0
-221 -222 -531 0
221 226 535 0
-221 -226 -535 0
222 225 540 0
-222 -225 -540 0
223 224 563 0
-223 -224 -563 0
223 227 565 0
-223 -227 -565 0
224 225 569 0
-224 -225 -569 0
225 226 583 0
-225 -226 -583 0
226 227 589 0
-226 -227 -589 0
228 231 245 0
-228 -231 -245 0
228 235 249 0
-228 -235 -249 0
228 237 251 0
-228 -237 -251 0
228 239 253 0
-228 -239 -253 0
228 241 255 0
-228 -241 -255 0
229 232 275 0
-229 -232 -275 0
229 234 278 0
-229 -234 -278 0
229 236 280 0
-229 -236 -280 0
229 240 284 0
-229 -240 -284 0
229 242 286 0
-229 -242 -286 0
230 231 347 0
-230 -231 -347 0
230 232 348 0
-230 -232 -348 0
230 237 352 0
-230 -237 -352 0
230 242 357 0
-230 -242 -357 0
231 233 365 0
-231 -233 -365 0
231 238 368 0
-231 -238 -368 0
231 240 370 0
-231 -240 -370 0
232 233 391 0
-232 -233 -391 0
232 239 394 0
-232 -239 -394 0
232 241 396 0
-232 -241 -396 0
233 234 486 0
-233 -234 -486 0
233 237 487 0
-233 -237 -487 0
234 235 510 0
-234 -235 -510 0
234 239 514 0
-234 -239 -514 0
235 236 519 0
-235 -236 -519 0
235 238 521 0
-235 -238 -521 0
236 237 537 0
-236 -237 -537 0
236 241 541 0
-236 -241 -541 0
237 240 546 0
-237 -240 -546 0
238 239 568 0
-238 -239 -568 0
238 242 570 0
-238 -242 -570 0
239 240 574 0
-239 -240 -574 0
240 241 588 0
-240 -241 -588 0
241 242 593 0
-241 -242 -593 0
243 246 260 0
-243 -246 -260 0
243 250 264 0
-243 -250 -264 0
243 252 266 0
-243 -252 -266 0
243 254 268 0
-243 -254 -268 0
243 256 270 0
-243 -256 -270 0
244 247 290 0
-244 -247 -290 0
244 249 293 0
-244 -249 -293 0
244 251 295 0
-244 -251 -295 0
244 255 299 0
-244 -255 -299 0
244 257 301 0
-244 -257 -301 0
245 246 361 0
-245 -246 -361 0
245 247 362 0
-245 -247 -362 0
245 252 366 0
-245 -252 -366 0
245 257 371 0
-245 -257 -371 0
246 248 379 0
-246 -248 -379 0
246 253 382 0
-246 -253 -382 0
246 255 384 0
-246 -255 -384 0
247 248 403 0
-247 -248 -403 0
247 254 406 0
-247 -254 -406 0
247 256 408 0
-247 -256 -408 0
248 249 495 0
-248 -249 -495 0
248 252 496 0
-248 -252 -496 0
249 250 518 0
-249 -250 -518 0
249 254 522 0
-249 -254 -522 0
250 251 526 0
-250 -251 -526 0
250 253 528 0
-250 -253 -528 0
251 252 543 0
-251 -252 -543 0
251 256 547 0
-251 -256 -547 0
252 255 551 0
-252 -255 -551 0
253 254 573 0
-253 -254 -573 0
253 257 575 0
-253 -257 -575 0
254 255 579 0
-254 -255 -579 0
255 256 592 0
-255 -256 -592 0
256 257 597 0
-256 -257 -597 0
258 261 275 0
-258 -261 -275 0
258 265 279 0
-258 -265 -279 0
258 267 281 0
-258 -267 -281 0
258 269 283 0
-258 -269 -283 0
258 271 285 0
-258 -271 -285 0
259 262 305 0
-259 -262 -305 0
259 264 308 0
-259 -264 -308 0
259 266 310 0
-259 -266 -310 0
259 270 314 0
-259 -270 -314 0
259 272 316 0
-259 -272 -316 0
260 261 375 0
-260 -261 -375 0
260 262 376 0
-260 -262 -376 0
260 267 380 0
-260 -267 -380 0
260 272 385 0
-260 -272 -385 0
261 263 392 0
-261 -263 -392 0
261 268 395 0
-261 -268 -395 0
261 270 397 0
-261 -270 -397 0
262 263 415 0
-262 -263 -415 0
262 269 418 0
-262 -269 -418 0
262 271 420 0
-262 -271 -420 0
263 264 503 0
-263 -264 -503 0
263 267 504 0
-263 -267 -504 0
264 265 525 0
-264 -265 -525 0
264 269 529 0
-264 -269 -529 0
265 266 532 0
-265 -266 -532 0
265 268 534 0
-265 -268 -534 0
266 267 548 0
-266 -267 -548 0
266 271 552 0
-266 -271 -552 0
267 270 556 0
-267 -270 -556 0
268 269 578 0
-268 -269 -578 0
268 272 580 0
-268 -272 -580 0
269 270 584 0
-269 -270 -584 0
270 271 596 0
-270 -271 -596 0
271 272 600 0
-271 -272 -600 0
273 276 290 0
-273 -276 -290 0
273 280 294 0
-273 -280 -294 0
273 282 296 0
-273 -282 -296 0
273 284 298 0
-273 -284 -298 0
273 286 300 0
-273 -286 -300 0
274 277 320 0
-274 -277 -320 0
274 279 323 0
-274 -279 -323 0
274 281 325 0
-274 -281 -325 0
274 285 329 0
-274 -285 -329 0
274 287 331 0
-274 -287 -331 0
275 276 388 0
-275 -276 -388 0
275 277 389 0
-275 -277 -389 0
275 282 393 0
-275 -282 -393 0
275 287 398 0
-275 -287 -398 0
276 278 404 0
-276 -278 -404 0
276 283 407 0
-276 -283 -407 0
276 285 409 0
-276 -285 -409 0
277 278 427 0
-277 -278 -427 0
277 284 430 0
-277 -284 -430 0
277 286 432 0
-277 -286 -432 0
278 279 511 0
-278 -279 -511 0
278 282 512 0
-278 -282 -512 0
279 280 531 0
-279 -280 -531 0
279 284 535 0
-279 -284 -535 0
280 281 538 0
-280 -281 -538 0
280 283 540 0
-280 -283 -540 0
281 282 553 0
-281 -282 -553 0
281 286 557 0
-281 -286 -557 0
282 285 561 0
-282 -285 -561 0
283 284 583 0
-283 -284 -583 0
283 287 585 0
-283 -287 -585 0
284 285 589 0
-284 -285 -589 0
285 286 599 0
-285 -286 -599 0
286 287 602 0
-286 -287 -602 0
288 291 305 0
-288 -291 -305 0
288 295 309 0
-288 -295 -309 0
288 297 311 0
-288 -297 -311 0
288 299 313 0
-288 -299 -313 0
288 301 315 0
-288 -301 -315 0
289 292 335 0
-289 -292 -335 0
289 294 338 0
-289 -294 -338 0
289 296 340 0
-289 -296 -340 0
289 300 344 0
-289 -300 -344 0
289 302 346 0
-289 -302 -346 0
290 291 400 0
-290 -291 -400 0
290 292 401 0
-290 -292 -401 0
290 297 405 0
-290 -297 -405 0
290 302 410 0
-290 -302 -410 0
291 293 416 0
-291 -293 -416 0
291 298 419 0
-291 -298 -419 0
291 300 421 0
-291 -300 -421 0
292 293 438 0
-292 -293 -438 0
292 299 441 0
-292 -299 -441 0
292 301 443 0
-292 -301 -443 0
293 294 519 0
-293 -294 -519 0
293 297 520 0
-293 -297 -520 0
294 295 537 0
-294 -295 -537 0
294 299 541 0
-294 -299 -541 0
295 296 544 0
-295 -296 -544 0
295 298 546 0
-295 -298 -546 0
296 297 558 0
-296 -297 -558 0
296 301 562 0
-296 -301 -562 0
297 300 566 0
-297 -300 -566 0
298 299 588 0
-298 -299 -588 0
298 302 590 0
-298 -302 -590 0
299 300 593 0
-299 -300 -593 0
300 301 601 0
-300 -301 -601 0
301 302 604 0
-301 -302 -604 0
303 306 320 0
-303 -306 -320 0
303 310 324 0
-303 -310 -324 0
303 312 326 0
-303 -312 -326 0
303 314 328 0
-303 -314 -328 0
303 316 330 0
-303 -316 -330 0
304 307 349 0
-304 -307 -349 0
304 309 352 0
-304 -309 -352 0
304 311 354 0
-304 -311 -354 0
304 315 358 0
-304 -315 -358 0
304 317 360 0
-304 -317 -360 0
305 306 412 0
-305 -306 -412 0
305 307 413 0
-305 -307 -413 0
305 312 417 0
-305 -312 -417 0
305 317 422 0
-305 -317 -422 0
306 308 428 0
-306 -308 -428 0
306 313 431 0
-306 -313 -431 0
306 315 433 0
-306 -315 -433 0
307 308 448 0
-307 -308 -448 0
307 314 451 0
-307 -314 -451 0
307 316 453 0
-307 -316 -453 0
308 309 526 0
-308 -309 -526 0
308 312 527 0
-308 -312 -527 0
309 310 543 0
-309 -310 -543 0
309 314 547 0
-309 -314 -547 0
310 311 549 0
-310 -311 -549 0
310 313 551 0
-310 -313 -551 0
311 312 563 0
-311 -312 -563 0
311 316 567 0
-311 -316 -567 0
312 315 571 0
-312 -315 -571 0
313 314 592 0
-313 -314 -592 0
313 317 594 0
-313 -317 -594 0
314 315 597 0
-314 -315 -597 0
315 316 603 0
-315 -316 -603 0
316 317 606 0
-316 -317 -606 0
318 321 335 0
-318 -321 -335 0
318 325 339 0
-318 -325 -339 0
318 327 341 0
-318 -327 -341 0
318 329 343 0
-318 -329 -343 0
318 331 345 0
-318 -331 -345 0
319 322 363 0
-319 -322 -363 0
319 324 366 0
-319 -324 -366 0
319 326 368 0
-319 -326 -368 0
319 330 372 0
-319 -330 -372 0
319 332 374 0
-319 -332 -374 0
320 321 424 0
-320 -321 -424 0
320 322 425 0
-320 -322 -425 0
320 327 429 0
-320 -327 -429 0
320 332 434 0
-320 -332 -434 0
321 323 439 0
-321 -323 -439 0
321 328 442 0
-321 -328 -442 0
321 330 444 0
-321 -330 -444 0
322 323 458 0
-322 -323 -458 0
322 329 461 0
-322 -329 -461 0
322 331 463 0
-322 -331 -463 0
323 324 532 0
-323 -324 -532 0
323 327 533 0
-323 -327 -533 0
324 325 548 0
-324 -325 -548 0
324 329 552 0
-324 -329 -552 0
325 326 554 0
-325 -326 -554 0
325 328 556 0
-325 -328 -556 0
326 327 568 0
-326 -327 -568 0
326 331 572 0
-326 -331 -572 0
327 330 576 0
-327 -330 -576 0
328 329 596 0
-328 -329 -596 0
328 332 598 0
-328 -332 -598 0
329 330 600 0
-329 -330 -600 0
330 331 605 0
-330 -331 -605 0
331 332 608 0
-331 -332 -608 0
333 336 349 0
-333 -336 -349 0
333 340 353 0
-333 -340 -353 0
333 342 355 0
-333 -342 -355 0
333 344 357 0
-333 -344 -357 0
333 346 359 0
-333 -346 -359 0
334 337 377 0
-334 -337 -377 0
334 339 380 0
-334 -339 -380 0
334 341 382 0
-334 -341 -382 0
334 345 386 0
-334 -345 -386 0
335 336 435 0
-335 -336 -435 0
335 337 436 0
-335 -337 -436 0
335 342 440 0
-335 -342 -440 0
336 338 449 0
-336 -338 -449 0
336 343 452 0
-336 -343 -452 0
336 345 454 0
-336 -345 -454 0
337 338 468 0
-337 -338 -468 0
337 344 471 0
-337 -344 -471 0
337 346 473 0
-337 -346 -473 0
338 339 538 0
-338 -339 -538 0
338 342 539 0
-338 -342 -539 0
339 340 553 0
-339 -340 -553 0
339 344 557 0
-339 -344 -557 0
340 341 559 0
-340 -341 -559 0
340 343 561 0
-340 -343 -561 0
341 342 573 0
-341 -342 -573 0
341 346 577 0
-341 -346 -577 0
342 345 581 0
-342 -345 -581 0
343 344 599 0
-343 -344 -599 0
344 345 602 0
-344 -345 -602 0
345 346 607 0
-345 -346 -607 0
347 350 363 0
-347 -350 -363 0
347 354 367 0
-347 -354 -367 0
347 356 369 0
-347 -356 -369 0
347 358 371 0
-347 -358 -371 0
347 360 373 0
-347 -360 -373 0
348 351 390 0
-348 -351 -390 0
348 353 393 0
-348 -353 -393 0
348 355 395 0
-348 -355 -395 0
348 359 399 0
-348 -359 -399 0
349 350 445 0
-349 -350 -445 0
349 351 446 0
-349 -351 -446 0
349 356 450 0
-349 -356 -450 0
350 352 459 0
-350 -352 -459 0
350 357 462 0
-350 -357 -462 0
350 359 464 0
-350 -359 -464 0
351 352 478 0
-351 -352 -478 0
351 358 481 0
-351 -358 -481 0
351 360 483 0
-351 -360 -483 0
352 353 544 0
-352 -353 -544 0
352 356 545 0
-352 -356 -545 0
353 354 558 0
-353 -354 -558 0
353 358 562 0
-353 -358 -562 0
354 355 564 0
-354 -355 -564 0
354 357 566 0
-354 -357 -566 0
355 356 578 0
-355 -356 -578 0
355 360 582 0
-355 -360 -582 0
356 359 586 0
-356 -359 -586 0
357 358 601 0
-357 -358 -601 0
358 359 604 0
-358 -359 -604 0
359 360 609 0
-359 -360 -609 0
361 364 377 0
-361 -364 -377 0
361 368 381 0
-361 -368 -381 0
361 370 383 0
-361 -370 -383 0
361 372 385 0
-361 -372 -385 0
361 374 387 0
-361 -374 -387 0
362 365 402 0
-362 -365 -402 0
362 367 405 0
-362 -367 -405 0
362 369 407 0
-362 -369 -407 0
362 373 411 0
-362 -373 -411 0
363 364 455 0
-363 -364 -455 0
363 365 456 0
-363 -365 -456 0
363 370 460 0
-363 -370 -460 0
364 366 469 0
-364 -366 -469 0
364 371 472 0
-364 -371 -472 0
364 373 474 0
-364 -373 -474 0
365 366 488 0
-365 -366 -488 0
365 372 491 0
-365 -372 -491 0
365 374 493 0
-365 -374 -493 0
366 367 549 0
-366 -367 -549 0
366 370 550 0
-366 -370 -550 0
367 368 563 0
-367 -368 -563 0
367 372 567 0
-367 -372 -567 0
368 369 569 0
-368 -369 -569 0
368 371 571 0
-368 -371 -571 0
369 370 583 0
-369 -370 -583 0
369 374 587 0
-369 -374 -587 0
370 373 591 0
-370 -373 -591 0
371 372 603 0
-371 -372 -603 0
372 373 606 0
-372 -373 -606 0
373 374 610 0
-373 -374 -610 0
375 378 390 0
-375 -378 -390 0
375 382 394 0
-375 -382 -394 0
375 384 396 0
-375 -384 -396 0
375 386 398 0
-375 -386 -398 0
376 379 414 0
-376 -379 -414 0
376 381 417 0
-376 -381 -417 0
376 383 419 0
-376 -383 -419 0
376 387 423 0
-376 -387 -423 0
377 378 465 0
-377 -378 -465 0
377 379 466 0
-377 -379 -466 0
377 384 470 0
-377 -384 -470 0
378 380 479 0
-378 -380 -479 0
378 385 482 0
-378 -385 -482 0
378 387 484 0
-378 -387 -484 0
379 380 497 0
-379 -380 -497 0
379 386 500 0
-379 -386 -500 0
380 381 554 0
-380 -381 -554 0
380 384 555 0
-380 -384 -555 0
381 382 568 0
-381 -382 -568 0
381 386 572 0
-381 -386 -572 0
382 383 574 0
-382 -383 -574 0
382 385 576 0
-382 -385 -576 0
383 384 588 0
-383 -384 -588 0
384 387 595 0
-384 -387 -595 0
385 386 605 0
-385 -386 -605 0
386 387 608 0
-386 -387 -608 0
388 391 402 0
-388 -391 -402 0
388 395 406 0
-388 -395 -406 0
388 397 408 0
-388 -397 -408 0
388 399 410 0
-388 -399 -410 0
389 392 426 0
-389 -392 -426 0
389 394 429 0
-389 -394 -429 0
389 396 431 0
-389 -396 -431 0
390 391 475 0
-390 -391 -475 0
390 392 476 0
-390 -392 -476 0
390 397 480 0
-390 -397 -480 0
391 393 489 0
-391 -393 -489 0
391 398 492 0
-391 -398 -492 0
392 393 505 0
-392 -393 -505 0
392 399 508 0
-392 -399 -508 0
393 394 559 0
-393 -394 -559 0
393 397 560 0
-393 -397 -560 0
394 395 573 0
-394 -395 -573 0
394 399 577 0
-394 -399 -577 0
395 396 579 0
-395 -396 -579 0
395 398 581 0
-395 -398 -581 0
396 397 592 0
-396 -397 -592 0
398 399 607 0
-398 -399 -607 0
400 403 414 0
-400 -403 -414 0
400 407 418 0
-400 -407 -418 0
400 409 420 0
-400 -409 -420 0
400 411 422 0
-400 -411 -422 0
401 404 437 0
-401 -404 -437 0
401 406 440 0
-401 -406 -440 0
401 408 442 0
-401 -408 -442 0
402 403 485 0
-402 -403 -485 0
402 404 486 0
-402 -404 -486 0
402 409 490 0
-402 -409 -490 0
403 405 498 0
-403 -405 -498 0
403 410 501 0
-403 -410 -501 0
404 405 513 0
-404 -405 -513 0
404 411 516 0
-404 -411 -516 0
405 406 564 0
-405 -406 -564 0
405 409 565 0
-405 -409 -565 0
406 407 578 0
-406 -407 -578 0
406 411 582 0
-406 -411 -582 0
407 408 584 0
-407 -408 -584 0
407 410 586 0
-407 -410 -586 0
408 409 596 0
-408 -409 -596 0
410 411 609 0
-410 -411 -609 0
412 415 426 0
-412 -415 -426 0
412 419 430 0
-412 -419 -430 0
412 421 432 0
-412 -421 -432 0
412 423 434 0
-412 -423 -434 0
413 416 447 0
-413 -416 -447 0
413 418 450 0
-413 -418 -450 0
413 420 452 0
-413 -420 -452 0
414 415 494 0
-414 -415 -494 0
414 416 495 0
-414 -416 -495 0
414 421 499 0
-414 -421 -499 0
415 417 506 0
-415 -417 -506 0
415 422 509 0
-415 -422 -509 0
416 417 521 0
-416 -417 -521 0
416 423 524 0
-416 -423 -524 0
417 418 569 0
-417 -418 -569 0
417 421 570 0
-417 -421 -570 0
418 419 583 0
-418 -419 -583 0
418 423 587 0
-418 -423 -587 0
419 420 589 0
-419 -420 -589 0
419 422 591 0
-419 -422 -591 0
420 421 599 0
-420 -421 -599 0
422 423 610 0
-422 -423 -610 0
424 427 437 0
-424 -427 -437 0
424 431 441 0
-424 -431 -441 0
424 433 443 0
-424 -433 -443 0
425 428 457 0
-425 -428 -457 0
425 430 460 0
-425 -430 -460 0
425 432 462 0
-425 -432 -462 0
426 427 502 0
-426 -427 -502 0
426 428 503 0
-426 -428 -503 0
426 433 507 0
-426 -433 -507 0
427 429 514 0
-427 -429 -514 0
427 434 517 0
-427 -434 -517 0
428 429 528 0
-428 -429 -528 0
429 430 574 0
-429 -430 -574 0
429 433 575 0
-429 -433 -575 0
430 431 588 0
-430 -431 -588 0
431 432 593 0
-431 -432 -593 0
431 434 595 0
-431 -434 -595 0
432 433 601 0
-432 -433 -601 0
435 438 447 0
-435 -438 -447 0
435 442 451 0
-435 -442 -451 0
435 444 453 0
-435 -444 -453 0
436 439 467 0
-436 -439 -467 0
436 441 470 0
-436 -441 -470 0
436 443 472 0
-436 -443 -472 0
437 438 510 0
-437 -438 -510 0
437 439 511 0
-437 -439 -511 0
437 444 515 0
-437 -444 -515 0
438 440 522 0
-438 -440 -522 0
439 440 534 0
-439 -440 -534 0
440 441 579 0
-440 -441 -579 0
440 444 580 0
-440 -444 -580 0
441 442 592 0
-441 -442 -592 0
442 443 597 0
-442 -443 -597 0
443 444 603 0
-443 -444 -603 0
445 448 457 0
-445 -448 -457 0
445 452 461 0
-445 -452 -461 0
445 454 463 0
-445 -454 -463 0
446 449 477 0
-446 -449 -477 0
446 451 480 0
-446 -451 -480 0
446 453 482 0
-446 -453 -482 0
447 448 518 0
-447 -448 -518 0
447 449 519 0
-447 -449 -519 0
447 454 523 0
-447 -454 -523 0
448 450 529 0
-448 -450 -529 0
449 450 540 0
-449 -450 -540 0
450 451 584 0
-450 -451 -584 0
450 454 585 0
-450 -454 -585 0
451 452 596 0
-451 -452 -596 0
452 453 600 0
-452 -453 -600 0
453 454 605 0
-453 -454 -605 0
455 458 467 0
-455 -458 -467 0
455 462 471 0
-455 -462 -471 0
455 464 473 0
-455 -464 -473 0
456 459 487 0
-456 -459 -487 0
456 461 490 0
-456 -461 -490 0
456 463 492 0
-456 -463 -492 0
457 458 525 0
-457 -458 -525 0
457 459 526 0
-457 -459 -526 0
457 464 530 0
-457 -464 -530 0
458 460 535 0
-458 -460 -535 0
459 460 546 0
-459 -460 -546 0
460 461 589 0
-460 -461 -589 0
460 464 590 0
-460 -464 -590 0
461 462 599 0
-461 -462 -599 0
462 463 602 0
-462 -463 -602 0
463 464 607 0
-463 -464 -607 0
465 468 477 0
-465 -468 -477 0
465 472 481 0
-465 -472 -481 0
465 474 483 0
-465 -474 -483 0
466 469 496 0
-466 -469 -496 0
466 471 499 0
-466 -471 -499 0
466 473 501 0
-466 -473 -501 0
467 468 531 0
-467 -468 -531 0
467 469 532 0
-467 -469 -532 0
467 474 536 0
-467 -474 -536 0
468 470 541 0
-468 -470 -541 0
469 470 551 0
-469 -470 -551 0
470 471 593 0
-470 -471 -593 0
470 474 594 0
-470 -474 -594 0
471 472 601 0
-471 -472 -601 0
472 473 604 0
-472 -473 -604 0
473 474 609 0
-473 -474 -609 0
475 478 487 0
-475 -478 -487 0
475 482 491 0
-475 -482 -491 0
475 484 493 0
-475 -484 -493 0
476 479 504 0
-476 -479 -504 0
476 481 507 0
-476 -481 -507 0
476 483 509 0
-476 -483 -509 0
477 478 537 0
-477 -478 -537 0
477 479 538 0
-477 -479 -538 0
477 484 542 0
-477 -484 -542 0
478 480 547 0
-478 -480 -547 0
479 480 556 0
-479 -480 -556 0
480 481 597 0
-480 -481 -597 0
480 484 598 0
-480 -484 -598 0
481 482 603 0
-481 -482 -603 0
482 483 606 0
-482 -483 -606 0
483 484 610 0
-483 -484 -610 0
485 488 496 0
-485 -488 -496 0
485 492 500 0
-485 -492 -500 0
486 489 512 0
-486 -489 -512 0
486 491 515 0
-486 -491 -515 0
486 493 517 0
-486 -493 -517 0
487 488 543 0
-487 -488 -543 0
487 489 544 0
-487 -489 -544 0
488 490 552 0
-488 -490 -552 0
489 490 561 0
-489 -490 -561 0
490 491 600 0
-490 -491 -600 0
491 492 605 0
-491 -492 -605 0
492 493 608 0
-492 -493 -608 0
494 497 504 0
-494 -497 -504 0
494 501 508 0
-494 -501 -508 0
495 498 520 0
-495 -498 -520 0
495 500 523 0
-495 -500 -523 0
496 497 548 0
-496 -497 -548 0
496 498 549 0
-496 -498 -549 0
497 499 557 0
-497 -499 -557 0
498 499 566 0
-498 -499 -566 0
499 500 602 0
-499 -500 -602 0
500 501 607 0
-500 -501 -607 0
502 505 512 0
-502 -505 -512 0
502 509 516 0
-502 -509 -516 0
503 506 527 0
-503 -506 -527 0
503 508 530 0
-503 -508 -530 0
504 505 553 0
-504 -505 -553 0
504 506 554 0
-504 -506 -554 0
505 507 562 0
-505 -507 -562 0
506 507 571 0
-506 -507 -571 0
507 508 604 0
-507 -508 -604 0
508 509 609 0
-508 -509 -609 0
510 513 520 0
-510 -513 -520 0
510 517 524 0
-510 -517 -524 0
511 514 533 0
-511 -514 -533 0
511 516 536 0
-511 -516 -536 0
512 513 558 0
-512 -513 -558 0
512 514 559 0
-512 -514 -559 0
513 515 567 0
-513 -515 -567 0
514 515 576 0
-514 -515 -576 0
515 516 606 0
-515 -516 -606 0
516 517 610 0
-516 -517 -610 0
518 521 527 0
-518 -521 -527 0
519 522 539 0
-519 -522 -539 0
519 524 542 0
-519 -524 -542 0
520 521 563 0
-520 -521 -563 0
520 522 564 0
-520 -522 -564 0
521 523 572 0
-521 -523 -572 0
522 523 581 0
-522 -523 -581 0
523 524 608 0
-523 -524 -608 0
525 528 533 0
-525 -528 -533 0
526 529 545 0
-526 -529 -545 0
527 528 568 0
-527 -528 -568 0
527 529 569 0
-527 -529 -569 0
528 530 577 0
-528 -530 -577 0
529 530 586 0
-529 -530 -586 0
531 534 539 0
-531 -534 -539 0
532 535 550 0
-532 -535 -550 0
533 534 573 0
-533 -534 -573 0
533 535 574 0
-533 -535 -574 0
534 536 582 0
-534 -536 -582 0
535 536 591 0
-535 -536 -591 0
537 540 545 0
-537 -540 -545 0
538 541 555 0
-538 -541 -555 0
539 540 578 0
-539 -540 -578 0
539 541 579 0
-539 -541 -579 0
540 542 587 0
-540 -542 -587 0
541 542 595 0
-541 -542 -595 0
543 546 550 0
-543 -546 -550 0
544 547 560 0
-544 -547 -560 0
545 546 583 0
-545 -546 -583 0
545 547 584 0
-545 -547 -584 0
548 551 555 0
-548 -551 -555 0
549 552 565 0
-549 -552 -565 0
550 551 588 0
-550 -551 -588 0
550 552 589 0
-550 -552 -589 0
553 556 560 0
-553 -556 -560 0
554 557 570 0
-554 -557 -570 0
555 556 592 0
-555 -556 -592 0
555 557 593 0
-555 -557 -593 0
558 561 565 0
-558 -561 -565 0
559 562 575 0
-559 -562 -575 0
560 561 596 0
-560 -561 -596 0
560 562 597 0
-560 -562 -597 0
563 566 570 0
-563 -566 -570 0
564 567 580 0
-564 -567 -580 0
565 566 599 0
-565 -566 -599 0
565 567 600 0
-565 -567 -600 0
568 571 575 0
-568 -571 -575 0
569 572 585 0
-569 -572 -585 0
570 571 601 0
-570 -571 -601 0
570 572 602 0
-570 -572 -602 0
573 576 580 0
-573 -576 -580 0
574 577 590 0
-574 -577 -590 0
575 576 603 0
-575 -576 -603 0
575 577 604 0
-575 -577 -604 0
578 581 585 0
-578 -581 -585 0
579 582 594 0
-579 -582 -594 0
580 581 605 0
-580 -581 -605 0
580 582 606 0
-580 -582 -606 0
583 586 590 0
-583 -586 -590 0
584 587 598 0
-584 -587 -598 0
585 586 607 0
-585 -586 -607 0
585 587 608 0
-585 -587 -608 0
588 591 594 0
-588 -591 -594 0
590 591 609 0
-590 -591 -609 0
592 595 598 0
-592 -595 -598 0
594 595 610 0
-594 -595 -610 0
