p cnf 1027 4108
1 6 31 0
-1 -6 -31 0
1 8 33 0
-1 -8 -33 0
1 10 35 0
-1 -10 -35 0
1 18 43 0
-1 -18 -43 0
1 20 45 0
-1 -20 -45 0
1 22 47 0
-1 -22 -47 0
2 8 204 0
-2 -8 -204 0
2 10 206 0
-2 -10 -206 0
2 14 213 0
-2 -14 -213 0
2 15 214 0
-2 -15 -214 0
2 22 218 0
-2 -22 -218 0
2 24 220 0
-2 -24 -220 0
3 8 251 0
-3 -8 -251 0
3 10 253 0
-3 -10 -253 0
3 11 256 0
-3 -11 -256 0
3 20 265 0
-3 -20 -265 0
3 23 266 0
-3 -23 -266 0
3 25 268 0
-3 -25 -268 0
4 10 298 0
-4 -10 -298 0
4 11 301 0
-4 -11 -301 0
4 12 304 0
-4 -12 -304 0
4 18 310 0
-4 -18 -310 0
4 21 311 0
-4 -21 -311 0
4 24 312 0
-4 -24 -312 0
5 6 340 0
-5 -6 -340 0
5 10 341 0
-5 -10 -341 0
5 14 350 0
-5 -14 -350 0
5 16 352 0
-5 -16 -352 0
5 25 356 0
-5 -25 -356 0
5 26 360 0
-5 -26 -360 0
6 11 364 0
-6 -11 -364 0
6 12 368 0
-6 -12 -368 0
6 19 375 0
-6 -19 -375 0
6 23 376 0
-6 -23 -376 0
7 8 401 0
-7 -8 -401 0
7 11 403 0
-7 -11 -403 0
7 13 409 0
-7 -13 -409 0
7 18 414 0
-7 -18 -414 0
7 24 416 0
-7 -24 -416 0
7 26 419 0
-7 -26 -419 0
8 12 425 0
-8 -12 -425 0
8 21 434 0
-8 -21 -434 0
9 10 474 0
-9 -10 -474 0
9 12 477 0
-9 -12 -477 0
9 13 480 0
-9 -13 -480 0
9 20 487 0
-9 -20 -487 0
9 23 488 0
-9 -23 -488 0
9 26 490 0
-9 -26 -490 0
11 14 575 0
-11 -14 -575 0
11 22 583 0
-11 -22 -583 0
12 14 662 0
-12 -14 -662 0
12 25 673 0
-12 -25 -673 0
13 15 732 0
-13 -15 -732 0
13 16 735 0
-13 -16 -735 0
13 22 741 0
-13 -22 -741 0
13 25 742 0
-13 -25 -742 0
14 18 776 0
-14 -18 -776 0
14 20 778 0
-14 -20 -778 0
15 18 833 0
-15 -18 -833 0
15 19 835 0
-15 -19 -835 0
15 21 837 0
-15 -21 -837 0
15 23 838 0
-15 -23 -838 0
16 20 898 0
-16 -20 -898 0
16 21 899 0
-16 -21 -899 0
16 23 901 0
-16 -23 -901 0
16 24 902 0
-16 -24 -902 0
17 18 946 0
-17 -18 -946 0
17 22 947 0
-17 -22 -947 0
17 23 948 0
-17 -23 -948 0
17 24 949 0
-17 -24 -949 0
17 25 950 0
-17 -25 -950 0
17 26 954 0
-17 -26 -954 0
19 20 979 0
-19 -20 -979 0
19 24 980 0
-19 -24 -980 0
19 25 981 0
-19 -25 -981 0
19 26 985 0
-19 -26 -985 0
21 22 998 0
-21 -22 -998 0
21 26 1002 0
-21 -26 -1002 0
27 32 56 0
-27 -32 -56 0
27 34 58 0
-27 -34 -58 0
27 36 60 0
-27 -36 -60 0
27 44 68 0
-27 -44 -68 0
27 46 70 0
-27 -46 -70 0
27 48 72 0
-27 -48 -72 0
28 34 228 0
-28 -34 -228 0
28 36 230 0
-28 -36 -230 0
28 40 237 0
-28 -40 -237 0
28 41 238 0
-28 -41 -238 0
28 48 242 0
-28 -48 -242 0
28 50 244 0
-28 -50 -244 0
29 34 274 0
-29 -34 -274 0
29 36 276 0
-29 -36 -276 0
29 37 279 0
-29 -37 -279 0
29 46 288 0
-29 -46 -288 0
29 49 289 0
-29 -49 -289 0
29 51 291 0
-29 -51 -291 0
30 36 320 0
-30 -36 -320 0
30 37 323 0
-30 -37 -323 0
30 38 326 0
-30 -38 -326 0
30 44 332 0
-30 -44 -332 0
30 47 333 0
-30 -47 -333 0
30 50 334 0
-30 -50 -334 0
31 32 361 0
-31 -32 -361 0
31 36 362 0
-31 -36 -362 0
31 40 371 0
-31 -40 -371 0
31 42 373 0
-31 -42 -373 0
31 51 377 0
-31 -51 -377 0
32 37 384 0
-32 -37 -384 0
32 38 388 0
-32 -38 -388 0
32 45 395 0
-32 -45 -395 0
32 49 396 0
-32 -49 -396 0
33 34 420 0
-33 -34 -420 0
33 37 422 0
-33 -37 -422 0
33 39 428 0
-33 -39 -428 0
33 44 433 0
-33 -44 -433 0
33 50 435 0
-33 -50 -435 0
34 38 443 0
-34 -38 -443 0
34 47 452 0
-34 -47 -452 0
35 36 491 0
-35 -36 -491 0
35 38 494 0
-35 -38 -494 0
35 39 497 0
-35 -39 -497 0
35 46 504 0
-35 -46 -504 0
35 49 505 0
-35 -49 -505 0
37 40 590 0
-37 -40 -590 0
37 48 598 0
-37 -48 -598 0
38 40 676 0
-38 -40 -676 0
38 51 687 0
-38 -51 -687 0
39 41 745 0
-39 -41 -745 0
39 42 748 0
-39 -42 -748 0
39 48 754 0
-39 -48 -754 0
39 51 755 0
-39 -51 -755 0
40 44 788 0
-40 -44 -788 0
40 46 790 0
-40 -46 -790 0
41 44 844 0
-41 -44 -844 0
41 45 846 0
-41 -45 -846 0
41 47 848 0
-41 -47 -848 0
41 49 849 0
-41 -49 -849 0
42 46 908 0
-42 -46 -908 0
42 47 909 0
-42 -47 -909 0
42 49 911 0
-42 -49 -911 0
42 50 912 0
-42 -50 -912 0
43 44 955 0
-43 -44 -955 0
43 48 956 0
-43 -48 -956 0
43 49 957 0
-43 -49 -957 0
43 50 958 0
-43 -50 -958 0
43 51 959 0
-43 -51 -959 0
45 46 986 0
-45 -46 -986 0
45 50 987 0
-45 -50 -987 0
45 51 988 0
-45 -51 -988 0
47 48 1003 0
-47 -48 -1003 0
52 57 81 0
-52 -57 -81 0
52 59 83 0
-52 -59 -83 0
52 61 85 0
-52 -61 -85 0
52 69 93 0
-52 -69 -93 0
52 71 95 0
-52 -71 -95 0
52 73 97 0
-52 -73 -97 0
53 59 252 0
-53 -59 -252 0
53 61 254 0
-53 -61 -254 0
53 65 261 0
-53 -65 -261 0
53 66 262 0
-53 -66 -262 0
53 73 266 0
-53 -73 -266 0
53 75 268 0
-53 -75 -268 0
54 59 297 0
-54 -59 -297 0
54 61 299 0
-54 -61 -299 0
54 62 302 0
-54 -62 -302 0
54 71 311 0
-54 -71 -311 0
54 74 312 0
-54 -74 -312 0
54 76 314 0
-54 -76 -314 0
55 61 342 0
-55 -61 -342 0
55 62 345 0
-55 -62 -345 0
55 63 348 0
-55 -63 -348 0
55 69 354 0
-55 -69 -354 0
55 72 355 0
-55 -72 -355 0
55 75 356 0
-55 -75 -356 0
56 57 381 0
-56 -57 -381 0
56 61 382 0
-56 -61 -382 0
56 65 391 0
-56 -65 -391 0
56 67 393 0
-56 -67 -393 0
56 76 397 0
-56 -76 -397 0
57 62 404 0
-57 -62 -404 0
57 63 408 0
-57 -63 -408 0
57 70 415 0
-57 -70 -415 0
57 74 416 0
-57 -74 -416 0
58 59 438 0
-58 -59 -438 0
58 62 440 0
-58 -62 -440 0
58 64 446 0
-58 -64 -446 0
58 69 451 0
-58 -69 -451 0
58 75 453 0
-58 -75 -453 0
59 63 461 0
-59 -63 -461 0
59 72 470 0
-59 -72 -470 0
60 61 507 0
-60 -61 -507 0
60 63 510 0
-60 -63 -510 0
60 64 513 0
-60 -64 -513 0
60 71 520 0
-60 -71 -520 0
60 74 521 0
-60 -74 -521 0
62 65 605 0
-62 -65 -605 0
62 73 613 0
-62 -73 -613 0
63 65 690 0
-63 -65 -690 0
63 76 701 0
-63 -76 -701 0
64 66 758 0
-64 -66 -758 0
64 67 761 0
-64 -67 -761 0
64 73 767 0
-64 -73 -767 0
64 76 768 0
-64 -76 -768 0
65 69 800 0
-65 -69 -800 0
65 71 802 0
-65 -71 -802 0
66 69 855 0
-66 -69 -855 0
66 70 857 0
-66 -70 -857 0
66 72 859 0
-66 -72 -859 0
66 74 860 0
-66 -74 -860 0
67 71 918 0
-67 -71 -918 0
67 72 919 0
-67 -72 -919 0
67 74 921 0
-67 -74 -921 0
67 75 922 0
-67 -75 -922 0
68 69 963 0
-68 -69 -963 0
68 73 964 0
-68 -73 -964 0
68 74 965 0
-68 -74 -965 0
68 75 966 0
-68 -75 -966 0
68 76 967 0
-68 -76 -967 0
70 71 992 0
-70 -71 -992 0
70 75 993 0
-70 -75 -993 0
70 76 994 0
-70 -76 -994 0
72 73 1007 0
-72 -73 -1007 0
77 82 106 0
-77 -82 -106 0
77 84 108 0
-77 -84 -108 0
77 86 110 0
-77 -86 -110 0
77 94 118 0
-77 -94 -118 0
77 96 120 0
-77 -96 -120 0
77 98 122 0
-77 -98 -122 0
78 84 275 0
-78 -84 -275 0
78 86 277 0
-78 -86 -277 0
78 90 284 0
-78 -90 -284 0
78 91 285 0
-78 -91 -285 0
78 98 289 0
-78 -98 -289 0
78 100 291 0
-78 -100 -291 0
79 84 319 0
-79 -84 -319 0
79 86 321 0
-79 -86 -321 0
79 87 324 0
-79 -87 -324 0
79 96 333 0
-79 -96 -333 0
79 99 334 0
-79 -99 -334 0
79 101 336 0
-79 -101 -336 0
80 86 363 0
-80 -86 -363 0
80 87 366 0
-80 -87 -366 0
80 88 369 0
-80 -88 -369 0
80 94 375 0
-80 -94 -375 0
80 97 376 0
-80 -97 -376 0
80 100 377 0
-80 -100 -377 0
81 82 401 0
-81 -82 -401 0
81 86 402 0
-81 -86 -402 0
81 90 411 0
-81 -90 -411 0
81 92 413 0
-81 -92 -413 0
81 101 417 0
-81 -101 -417 0
82 87 423 0
-82 -87 -423 0
82 88 427 0
-82 -88 -427 0
82 95 434 0
-82 -95 -434 0
82 99 435 0
-82 -99 -435 0
83 84 456 0
-83 -84 -456 0
83 87 458 0
-83 -87 -458 0
83 89 464 0
-83 -89 -464 0
83 94 469 0
-83 -94 -469 0
83 100 471 0
-83 -100 -471 0
84 88 479 0
-84 -88 -479 0
84 97 488 0
-84 -97 -488 0
85 86 523 0
-85 -86 -523 0
85 88 526 0
-85 -88 -526 0
85 89 529 0
-85 -89 -529 0
85 96 536 0
-85 -96 -536 0
85 99 537 0
-85 -99 -537 0
87 90 620 0
-87 -90 -620 0
87 98 628 0
-87 -98 -628 0
88 90 704 0
-88 -90 -704 0
88 101 715 0
-88 -101 -715 0
89 91 771 0
-89 -91 -771 0
89 92 774 0
-89 -92 -774 0
89 98 780 0
-89 -98 -780 0
89 101 781 0
-89 -101 -781 0
90 94 812 0
-90 -94 -812 0
90 96 814 0
-90 -96 -814 0
91 94 866 0
-91 -94 -866 0
91 95 868 0
-91 -95 -868 0
91 97 870 0
-91 -97 -870 0
91 99 871 0
-91 -99 -871 0
92 96 928 0
-92 -96 -928 0
92 97 929 0
-92 -97 -929 0
92 99 931 0
-92 -99 -931 0
92 100 932 0
-92 -100 -932 0
93 94 971 0
-93 -94 -971 0
93 98 972 0
-93 -98 -972 0
93 99 973 0
-93 -99 -973 0
93 100 974 0
-93 -100 -974 0
93 101 975 0
-93 -101 -975 0
95 96 998 0
-95 -96 -998 0
95 100 999 0
-95 -100 -999 0
95 101 1000 0
-95 -101 -1000 0
97 98 1011 0
-97 -98 -1011 0
102 107 131 0
-102 -107 -131 0
102 109 133 0
-102 -109 -133 0
102 111 135 0
-102 -111 -135 0
102 119 143 0
-102 -119 -143 0
102 121 145 0
-102 -121 -145 0
102 123 147 0
-102 -123 -147 0
103 109 298 0
-103 -109 -298 0
103 111 300 0
-103 -111 -300 0
103 115 307 0
-103 -115 -307 0
103 116 308 0
-103 -116 -308 0
103 123 312 0
-103 -123 -312 0
103 125 314 0
-103 -125 -314 0
104 109 341 0
-104 -109 -341 0
104 111 343 0
-104 -111 -343 0
104 112 346 0
-104 -112 -346 0
104 121 355 0
-104 -121 -355 0
104 124 356 0
-104 -124 -356 0
104 126 358 0
-104 -126 -358 0
105 111 383 0
-105 -111 -383 0
105 112 386 0
-105 -112 -386 0
105 113 389 0
-105 -113 -389 0
105 119 395 0
-105 -119 -395 0
105 122 396 0
-105 -122 -396 0
105 125 397 0
-105 -125 -397 0
106 107 420 0
-106 -107 -420 0
106 111 421 0
-106 -111 -421 0
106 115 430 0
-106 -115 -430 0
106 117 432 0
-106 -117 -432 0
106 126 436 0
-106 -126 -436 0
107 112 441 0
-107 -112 -441 0
107 113 445 0
-107 -113 -445 0
107 120 452 0
-107 -120 -452 0
107 124 453 0
-107 -124 -453 0
108 109 474 0
-108 -109 -474 0
108 112 476 0
-108 -112 -476 0
108 114 482 0
-108 -114 -482 0
108 119 487 0
-108 -119 -487 0
108 125 489 0
-108 -125 -489 0
109 113 496 0
-109 -113 -496 0
109 122 505 0
-109 -122 -505 0
110 111 539 0
-110 -111 -539 0
110 113 542 0
-110 -113 -542 0
110 114 545 0
-110 -114 -545 0
110 121 552 0
-110 -121 -552 0
110 124 553 0
-110 -124 -553 0
112 115 635 0
-112 -115 -635 0
112 123 643 0
-112 -123 -643 0
113 115 718 0
-113 -115 -718 0
113 126 729 0
-113 -126 -729 0
114 116 783 0
-114 -116 -783 0
114 117 786 0
-114 -117 -786 0
114 123 792 0
-114 -123 -792 0
114 126 793 0
-114 -126 -793 0
115 119 824 0
-115 -119 -824 0
115 121 826 0
-115 -121 -826 0
116 119 877 0
-116 -119 -877 0
116 120 879 0
-116 -120 -879 0
116 122 881 0
-116 -122 -881 0
116 124 882 0
-116 -124 -882 0
117 121 938 0
-117 -121 -938 0
117 122 939 0
-117 -122 -939 0
117 124 941 0
-117 -124 -941 0
117 125 942 0
-117 -125 -942 0
118 119 979 0
-118 -119 -979 0
118 123 980 0
-118 -123 -980 0
118 124 981 0
-118 -124 -981 0
118 125 982 0
-118 -125 -982 0
118 126 983 0
-118 -126 -983 0
120 121 1003 0
-120 -121 -1003 0
120 125 1004 0
-120 -125 -1004 0
120 126 1005 0
-120 -126 -1005 0
122 123 1014 0
-122 -123 -1014 0
127 132 156 0
-127 -132 -156 0
127 134 158 0
-127 -134 -158 0
127 136 160 0
-127 -136 -160 0
127 144 168 0
-127 -144 -168 0
127 146 170 0
-127 -146 -170 0
127 148 172 0
-127 -148 -172 0
128 134 320 0
-128 -134 -320 0
128 136 322 0
-128 -136 -322 0
128 140 329 0
-128 -140 -329 0
128 141 330 0
-128 -141 -330 0
128 148 334 0
-128 -148 -334 0
128 150 336 0
-128 -150 -336 0
129 134 362 0
-129 -134 -362 0
129 136 364 0
-129 -136 -364 0
129 137 367 0
-129 -137 -367 0
129 146 376 0
-129 -146 -376 0
129 149 377 0
-129 -149 -377 0
129 151 379 0
-129 -151 -379 0
130 136 403 0
-130 -136 -403 0
130 137 406 0
-130 -137 -406 0
130 138 409 0
-130 -138 -409 0
130 144 415 0
-130 -144 -415 0
130 147 416 0
-130 -147 -416 0
130 150 417 0
-130 -150 -417 0
131 132 438 0
-131 -132 -438 0
131 136 439 0
-131 -136 -439 0
131 140 448 0
-131 -140 -448 0
131 142 450 0
-131 -142 -450 0
131 151 454 0
-131 -151 -454 0
132 137 459 0
-132 -137 -459 0
132 138 463 0
-132 -138 -463 0
132 145 470 0
-132 -145 -470 0
132 149 471 0
-132 -149 -471 0
133 134 491 0
-133 -134 -491 0
133 137 493 0
-133 -137 -493 0
133 139 499 0
-133 -139 -499 0
133 144 504 0
-133 -144 -504 0
133 150 506 0
-133 -150 -506 0
134 138 512 0
-134 -138 -512 0
134 147 521 0
-134 -147 -521 0
135 136 555 0
-135 -136 -555 0
135 138 558 0
-135 -138 -558 0
135 139 561 0
-135 -139 -561 0
135 146 568 0
-135 -146 -568 0
135 149 569 0
-135 -149 -569 0
137 140 650 0
-137 -140 -650 0
137 148 658 0
-137 -148 -658 0
138 140 732 0
-138 -140 -732 0
138 151 743 0
-138 -151 -743 0
139 141 795 0
-139 -141 -795 0
139 142 798 0
-139 -142 -798 0
139 148 804 0
-139 -148 -804 0
139 151 805 0
-139 -151 -805 0
140 144 836 0
-140 -144 -836 0
140 146 838 0
-140 -146 -838 0
141 144 888 0
-141 -144 -888 0
141 145 890 0
-141 -145 -890 0
141 147 892 0
-141 -147 -892 0
141 149 893 0
-141 -149 -893 0
142 146 948 0
-142 -146 -948 0
142 147 949 0
-142 -147 -949 0
142 149 951 0
-142 -149 -951 0
142 150 952 0
-142 -150 -952 0
143 144 986 0
-143 -144 -986 0
143 148 987 0
-143 -148 -987 0
143 149 988 0
-143 -149 -988 0
143 150 989 0
-143 -150 -989 0
143 151 990 0
-143 -151 -990 0
145 146 1007 0
-145 -146 -1007 0
145 150 1008 0
-145 -150 -1008 0
145 151 1009 0
-145 -151 -1009 0
147 148 1017 0
-147 -148 -1017 0
152 157 181 0
-152 -157 -181 0
152 159 183 0
-152 -159 -183 0
152 161 185 0
-152 -161 -185 0
152 169 193 0
-152 -169 -193 0
152 171 195 0
-152 -171 -195 0
152 173 197 0
-152 -173 -197 0
153 159 342 0
-153 -159 -342 0
153 161 344 0
-153 -161 -344 0
153 165 351 0
-153 -165 -351 0
153 166 352 0
-153 -166 -352 0
153 173 356 0
-153 -173 -356 0
153 175 358 0
-153 -175 -358 0
154 159 382 0
-154 -159 -382 0
154 161 384 0
-154 -161 -384 0
154 162 387 0
-154 -162 -387 0
154 171 396 0
-154 -171 -396 0
154 174 397 0
-154 -174 -397 0
154 176 399 0
-154 -176 -399 0
155 161 422 0
-155 -161 -422 0
155 162 425 0
-155 -162 -425 0
155 163 428 0
-155 -163 -428 0
155 169 434 0
-155 -169 -434 0
155 172 435 0
-155 -172 -435 0
155 175 436 0
-155 -175 -436 0
156 157 456 0
-156 -157 -456 0
156 161 457 0
-156 -161 -457 0
156 165 466 0
-156 -165 -466 0
156 167 468 0
-156 -167 -468 0
156 176 472 0
-156 -176 -472 0
157 162 477 0
-157 -162 -477 0
157 163 481 0
-157 -163 -481 0
157 170 488 0
-157 -170 -488 0
157 174 489 0
-157 -174 -489 0
158 159 507 0
-158 -159 -507 0
158 162 509 0
-158 -162 -509 0
158 164 515 0
-158 -164 -515 0
158 169 520 0
-158 -169 -520 0
158 175 522 0
-158 -175 -522 0
159 163 528 0
-159 -163 -528 0
159 172 537 0
-159 -172 -537 0
160 161 571 0
-160 -161 -571 0
160 163 574 0
-160 -163 -574 0
160 164 577 0
-160 -164 -577 0
160 171 584 0
-160 -171 -584 0
160 174 585 0
-160 -174 -585 0
162 165 665 0
-162 -165 -665 0
162 173 673 0
-162 -173 -673 0
163 165 745 0
-163 -165 -745 0
163 176 756 0
-163 -176 -756 0
164 166 807 0
-164 -166 -807 0
164 167 810 0
-164 -167 -810 0
164 173 816 0
-164 -173 -816 0
164 176 817 0
-164 -176 -817 0
165 169 847 0
-165 -169 -847 0
165 171 849 0
-165 -171 -849 0
166 169 899 0
-166 -169 -899 0
166 170 901 0
-166 -170 -901 0
166 172 903 0
-166 -172 -903 0
166 174 904 0
-166 -174 -904 0
167 171 957 0
-167 -171 -957 0
167 172 958 0
-167 -172 -958 0
167 174 960 0
-167 -174 -960 0
167 175 961 0
-167 -175 -961 0
168 169 992 0
-168 -169 -992 0
168 173 993 0
-168 -173 -993 0
168 174 994 0
-168 -174 -994 0
168 175 995 0
-168 -175 -995 0
168 176 996 0
-168 -176 -996 0
170 171 1011 0
-170 -171 -1011 0
170 175 1012 0
-170 -175 -1012 0
170 176 1013 0
-170 -176 -1013 0
172 173 1019 0
-172 -173 -1019 0
177 182 206 0
-177 -182 -206 0
177 184 208 0
-177 -184 -208 0
177 186 210 0
-177 -186 -210 0
177 194 218 0
-177 -194 -218 0
177 196 220 0
-177 -196 -220 0
177 198 222 0
-177 -198 -222 0
178 184 363 0
-178 -184 -363 0
178 186 365 0
-178 -186 -365 0
178 190 372 0
-178 -190 -372 0
178 191 373 0
-178 -191 -373 0
178 198 377 0
-178 -198 -377 0
178 200 379 0
-178 -200 -379 0
179 184 402 0
-179 -184 -402 0
179 186 404 0
-179 -186 -404 0
179 187 407 0
-179 -187 -407 0
179 196 416 0
-179 -196 -416 0
179 199 417 0
-179 -199 -417 0
179 201 419 0
-179 -201 -419 0
180 186 440 0
-180 -186 -440 0
180 187 443 0
-180 -187 -443 0
180 188 446 0
-180 -188 -446 0
180 194 452 0
-180 -194 -452 0
180 197 453 0
-180 -197 -453 0
180 200 454 0
-180 -200 -454 0
181 182 474 0
-181 -182 -474 0
181 186 475 0
-181 -186 -475 0
181 190 484 0
-181 -190 -484 0
181 192 486 0
-181 -192 -486 0
181 201 490 0
-181 -201 -490 0
182 187 494 0
-182 -187 -494 0
182 188 498 0
-182 -188 -498 0
182 195 505 0
-182 -195 -505 0
182 199 506 0
-182 -199 -506 0
183 184 523 0
-183 -184 -523 0
183 187 525 0
-183 -187 -525 0
183 189 531 0
-183 -189 -531 0
183 194 536 0
-183 -194 -536 0
183 200 538 0
-183 -200 -538 0
184 188 544 0
-184 -188 -544 0
184 197 553 0
-184 -197 -553 0
185 186 586 0
-185 -186 -586 0
185 188 589 0
-185 -188 -589 0
185 189 592 0
-185 -189 -592 0
185 196 599 0
-185 -196 -599 0
185 199 600 0
-185 -199 -600 0
187 190 679 0
-187 -190 -679 0
187 198 687 0
-187 -198 -687 0
188 190 758 0
-188 -190 -758 0
188 201 769 0
-188 -201 -769 0
189 191 819 0
-189 -191 -819 0
189 192 822 0
-189 -192 -822 0
189 198 828 0
-189 -198 -828 0
189 201 829 0
-189 -201 -829 0
190 194 858 0
-190 -194 -858 0
190 196 860 0
-190 -196 -860 0
191 194 909 0
-191 -194 -909 0
191 195 911 0
-191 -195 -911 0
191 197 913 0
-191 -197 -913 0
191 199 914 0
-191 -199 -914 0
192 196 965 0
-192 -196 -965 0
192 197 966 0
-192 -197 -966 0
192 199 968 0
-192 -199 -968 0
192 200 969 0
-192 -200 -969 0
193 194 998 0
-193 -194 -998 0
193 198 999 0
-193 -198 -999 0
193 199 1000 0
-193 -199 -1000 0
193 200 1001 0
-193 -200 -1001 0
193 201 1002 0
-193 -201 -1002 0
195 196 1014 0
-195 -196 -1014 0
195 200 1015 0
-195 -200 -1015 0
195 201 1016 0
-195 -201 -1016 0
197 198 1021 0
-197 -198 -1021 0
202 207 230 0
-202 -207 -230 0
202 209 232 0
-202 -209 -232 0
202 211 234 0
-202 -211 -234 0
202 219 242 0
-202 -219 -242 0
202 221 244 0
-202 -221 -244 0
202 223 246 0
-202 -223 -246 0
203 209 383 0
-203 -209 -383 0
203 211 385 0
-203 -211 -385 0
203 215 392 0
-203 -215 -392 0
203 216 393 0
-203 -216 -393 0
203 223 397 0
-203 -223 -397 0
203 225 399 0
-203 -225 -399 0
204 209 421 0
-204 -209 -421 0
204 211 423 0
-204 -211 -423 0
204 212 426 0
-204 -212 -426 0
204 221 435 0
-204 -221 -435 0
204 224 436 0
-204 -224 -436 0
205 211 458 0
-205 -211 -458 0
205 212 461 0
-205 -212 -461 0
205 213 464 0
-205 -213 -464 0
205 219 470 0
-205 -219 -470 0
205 222 471 0
-205 -222 -471 0
205 225 472 0
-205 -225 -472 0
206 207 491 0
-206 -207 -491 0
206 211 492 0
-206 -211 -492 0
206 215 501 0
-206 -215 -501 0
206 217 503 0
-206 -217 -503 0
207 212 510 0
-207 -212 -510 0
207 213 514 0
-207 -213 -514 0
207 220 521 0
-207 -220 -521 0
207 224 522 0
-207 -224 -522 0
208 209 539 0
-208 -209 -539 0
208 212 541 0
-208 -212 -541 0
208 214 547 0
-208 -214 -547 0
208 219 552 0
-208 -219 -552 0
208 225 554 0
-208 -225 -554 0
209 213 560 0
-209 -213 -560 0
209 222 569 0
-209 -222 -569 0
210 211 601 0
-210 -211 -601 0
210 213 604 0
-210 -213 -604 0
210 214 607 0
-210 -214 -607 0
210 221 614 0
-210 -221 -614 0
210 224 615 0
-210 -224 -615 0
212 215 693 0
-212 -215 -693 0
212 223 701 0
-212 -223 -701 0
213 215 771 0
-213 -215 -771 0
214 216 831 0
-214 -216 -831 0
214 217 834 0
-214 -217 -834 0
214 223 840 0
-214 -223 -840 0
215 219 869 0
-215 -219 -869 0
215 221 871 0
-215 -221 -871 0
216 219 919 0
-216 -219 -919 0
216 220 921 0
-216 -220 -921 0
216 222 923 0
-216 -222 -923 0
216 224 924 0
-216 -224 -924 0
217 221 973 0
-217 -221 -973 0
217 222 974 0
-217 -222 -974 0
217 224 976 0
-217 -224 -976 0
217 225 977 0
-217 -225 -977 0
218 219 1003 0
-218 -219 -1003 0
218 223 1004 0
-218 -223 -1004 0
218 224 1005 0
-218 -224 -1005 0
218 225 1006 0
-218 -225 -1006 0
220 221 1017 0
-220 -221 -1017 0
220 225 1018 0
-220 -225 -1018 0
222 223 1022 0
-222 -223 -1022 0
226 231 254 0
-226 -231 -254 0
226 233 256 0
-226 -233 -256 0
226 235 258 0
-226 -235 -258 0
226 243 266 0
-226 -243 -266 0
226 245 268 0
-226 -245 -268 0
226 247 270 0
-226 -247 -270 0
227 233 403 0
-227 -233 -403 0
227 235 405 0
-227 -235 -405 0
227 239 412 0
-227 -239 -412 0
227 240 413 0
-227 -240 -413 0
227 247 417 0
-227 -247 -417 0
227 249 419 0
-227 -249 -419 0
228 233 439 0
-228 -233 -439 0
228 235 441 0
-228 -235 -441 0
228 236 444 0
-228 -236 -444 0
228 245 453 0
-228 -245 -453 0
228 248 454 0
-228 -248 -454 0
229 235 476 0
-229 -235 -476 0
229 236 479 0
-229 -236 -479 0
229 237 482 0
-229 -237 -482 0
229 243 488 0
-229 -243 -488 0
229 246 489 0
-229 -246 -489 0
229 249 490 0
-229 -249 -490 0
230 231 507 0
-230 -231 -507 0
230 235 508 0
-230 -235 -508 0
230 239 517 0
-230 -239 -517 0
230 241 519 0
-230 -241 -519 0
231 236 526 0
-231 -236 -526 0
231 237 530 0
-231 -237 -530 0
231 244 537 0
-231 -244 -537 0
231 248 538 0
-231 -248 -538 0
232 233 555 0
-232 -233 -555 0
232 236 557 0
-232 -236 -557 0
232 238 563 0
-232 -238 -563 0
232 243 568 0
-232 -243 -568 0
232 249 570 0
-232 -249 -570 0
233 237 576 0
-233 -237 -576 0
233 246 585 0
-233 -246 -585 0
234 235 616 0
-234 -235 -616 0
234 237 619 0
-234 -237 -619 0
234 238 622 0
-234 -238 -622 0
234 245 629 0
-234 -245 -629 0
234 248 630 0
-234 -248 -630 0
236 239 707 0
-236 -239 -707 0
236 247 715 0
-236 -247 -715 0
237 239 783 0
-237 -239 -783 0
238 240 842 0
-238 -240 -842 0
238 241 845 0
-238 -241 -845 0
238 247 851 0
-238 -247 -851 0
239 243 880 0
-239 -243 -880 0
239 245 882 0
-239 -245 -882 0
240 243 929 0
-240 -243 -929 0
240 244 931 0
-240 -244 -931 0
240 246 933 0
-240 -246 -933 0
240 248 934 0
-240 -248 -934 0
241 245 981 0
-241 -245 -981 0
241 246 982 0
-241 -246 -982 0
241 248 984 0
-241 -248 -984 0
241 249 985 0
-241 -249 -985 0
242 243 1007 0
-242 -243 -1007 0
242 247 1008 0
-242 -247 -1008 0
242 248 1009 0
-242 -248 -1009 0
242 249 1010 0
-242 -249 -1010 0
244 245 1019 0
-244 -245 -1019 0
244 249 1020 0
-244 -249 -1020 0
246 247 1023 0
-246 -247 -1023 0
250 255 277 0
-250 -255 -277 0
250 257 279 0
-250 -257 -279 0
250 259 281 0
-250 -259 -281 0
250 267 289 0
-250 -267 -289 0
250 269 291 0
-250 -269 -291 0
250 271 293 0
-250 -271 -293 0
251 257 422 0
-251 -257 -422 0
251 259 424 0
-251 -259 -424 0
251 263 431 0
-251 -263 -431 0
251 264 432 0
-251 -264 -432 0
251 271 436 0
-251 -271 -436 0
252 257 457 0
-252 -257 -457 0
252 259 459 0
-252 -259 -459 0
252 260 462 0
-252 -260 -462 0
252 269 471 0
-252 -269 -471 0
252 272 472 0
-252 -272 -472 0
253 259 493 0
-253 -259 -493 0
253 260 496 0
-253 -260 -496 0
253 261 499 0
-253 -261 -499 0
253 267 505 0
-253 -267 -505 0
253 270 506 0
-253 -270 -506 0
254 255 523 0
-254 -255 -523 0
254 259 524 0
-254 -259 -524 0
254 263 533 0
-254 -263 -533 0
254 265 535 0
-254 -265 -535 0
255 260 542 0
-255 -260 -542 0
255 261 546 0
-255 -261 -546 0
255 268 553 0
-255 -268 -553 0
255 272 554 0
-255 -272 -554 0
256 257 571 0
-256 -257 -571 0
256 260 573 0
-256 -260 -573 0
256 262 579 0
-256 -262 -579 0
256 267 584 0
-256 -267 -584 0
257 261 591 0
-257 -261 -591 0
257 270 600 0
-257 -270 -600 0
258 259 631 0
-258 -259 -631 0
258 261 634 0
-258 -261 -634 0
258 262 637 0
-258 -262 -637 0
258 269 644 0
-258 -269 -644 0
258 272 645 0
-258 -272 -645 0
260 263 721 0
-260 -263 -721 0
260 271 729 0
-260 -271 -729 0
261 263 795 0
-261 -263 -795 0
262 264 853 0
-262 -264 -853 0
262 265 856 0
-262 -265 -856 0
262 271 862 0
-262 -271 -862 0
263 267 891 0
-263 -267 -891 0
263 269 893 0
-263 -269 -893 0
264 267 939 0
-264 -267 -939 0
264 268 941 0
-264 -268 -941 0
264 270 943 0
-264 -270 -943 0
264 272 944 0
-264 -272 -944 0
265 269 988 0
-265 -269 -988 0
265 270 989 0
-265 -270 -989 0
265 272 991 0
-265 -272 -991 0
266 267 1011 0
-266 -267 -1011 0
266 271 1012 0
-266 -271 -1012 0
266 272 1013 0
-266 -272 -1013 0
268 269 1021 0
-268 -269 -1021 0
270 271 1024 0
-270 -271 -1024 0
273 278 300 0
-273 -278 -300 0
273 280 302 0
-273 -280 -302 0
273 282 304 0
-273 -282 -304 0
273 290 312 0
-273 -290 -312 0
273 292 314 0
-273 -292 -314 0
273 294 316 0
-273 -294 -316 0
274 280 440 0
-274 -280 -440 0
274 282 442 0
-274 -282 -442 0
274 286 449 0
-274 -286 -449 0
274 287 450 0
-274 -287 -450 0
274 294 454 0
-274 -294 -454 0
275 280 475 0
-275 -280 -475 0
275 282 477 0
-275 -282 -477 0
275 283 480 0
-275 -283 -480 0
275 292 489 0
-275 -292 -489 0
275 295 490 0
-275 -295 -490 0
276 282 509 0
-276 -282 -509 0
276 283 512 0
-276 -283 -512 0
276 284 515 0
-276 -284 -515 0
276 290 521 0
-276 -290 -521 0
276 293 522 0
-276 -293 -522 0
277 278 539 0
-277 -278 -539 0
277 282 540 0
-277 -282 -540 0
277 286 549 0
-277 -286 -549 0
277 288 551 0
-277 -288 -551 0
278 283 558 0
-278 -283 -558 0
278 284 562 0
-278 -284 -562 0
278 291 569 0
-278 -291 -569 0
278 295 570 0
-278 -295 -570 0
279 280 586 0
-279 -280 -586 0
279 283 588 0
-279 -283 -588 0
279 285 594 0
-279 -285 -594 0
279 290 599 0
-279 -290 -599 0
280 284 606 0
-280 -284 -606 0
280 293 615 0
-280 -293 -615 0
281 282 646 0
-281 -282 -646 0
281 284 649 0
-281 -284 -649 0
281 285 652 0
-281 -285 -652 0
281 292 659 0
-281 -292 -659 0
281 295 660 0
-281 -295 -660 0
283 286 735 0
-283 -286 -735 0
283 294 743 0
-283 -294 -743 0
284 286 807 0
-284 -286 -807 0
285 287 864 0
-285 -287 -864 0
285 288 867 0
-285 -288 -867 0
285 294 873 0
-285 -294 -873 0
286 290 902 0
-286 -290 -902 0
286 292 904 0
-286 -292 -904 0
287 290 949 0
-287 -290 -949 0
287 291 951 0
-287 -291 -951 0
287 293 953 0
-287 -293 -953 0
287 295 954 0
-287 -295 -954 0
288 292 994 0
-288 -292 -994 0
288 293 995 0
-288 -293 -995 0
288 295 997 0
-288 -295 -997 0
289 290 1014 0
-289 -290 -1014 0
289 294 1015 0
-289 -294 -1015 0
289 295 1016 0
-289 -295 -1016 0
291 292 1022 0
-291 -292 -1022 0
293 294 1025 0
-293 -294 -1025 0
296 301 322 0
-296 -301 -322 0
296 303 324 0
-296 -303 -324 0
296 305 326 0
-296 -305 -326 0
296 313 334 0
-296 -313 -334 0
296 315 336 0
-296 -315 -336 0
296 317 338 0
-296 -317 -338 0
297 303 458 0
-297 -303 -458 0
297 305 460 0
-297 -305 -460 0
297 309 467 0
-297 -309 -467 0
297 310 468 0
-297 -310 -468 0
297 317 472 0
-297 -317 -472 0
298 303 492 0
-298 -303 -492 0
298 305 494 0
-298 -305 -494 0
298 306 497 0
-298 -306 -497 0
298 315 506 0
-298 -315 -506 0
299 305 525 0
-299 -305 -525 0
299 306 528 0
-299 -306 -528 0
299 307 531 0
-299 -307 -531 0
299 313 537 0
-299 -313 -537 0
299 316 538 0
-299 -316 -538 0
300 301 555 0
-300 -301 -555 0
300 305 556 0
-300 -305 -556 0
300 309 565 0
-300 -309 -565 0
300 311 567 0
-300 -311 -567 0
301 306 574 0
-301 -306 -574 0
301 307 578 0
-301 -307 -578 0
301 314 585 0
-301 -314 -585 0
302 303 601 0
-302 -303 -601 0
302 306 603 0
-302 -306 -603 0
302 308 609 0
-302 -308 -609 0
302 313 614 0
-302 -313 -614 0
303 307 621 0
-303 -307 -621 0
303 316 630 0
-303 -316 -630 0
304 305 661 0
-304 -305 -661 0
304 307 664 0
-304 -307 -664 0
304 308 667 0
-304 -308 -667 0
304 315 674 0
-304 -315 -674 0
306 309 748 0
-306 -309 -748 0
306 317 756 0
-306 -317 -756 0
307 309 819 0
-307 -309 -819 0
308 310 875 0
-308 -310 -875 0
308 311 878 0
-308 -311 -878 0
308 317 884 0
-308 -317 -884 0
309 313 912 0
-309 -313 -912 0
309 315 914 0
-309 -315 -914 0
310 313 958 0
-310 -313 -958 0
310 314 960 0
-310 -314 -960 0
310 316 962 0
-310 -316 -962 0
311 315 1000 0
-311 -315 -1000 0
311 316 1001 0
-311 -316 -1001 0
312 313 1017 0
-312 -313 -1017 0
312 317 1018 0
-312 -317 -1018 0
314 315 1023 0
-314 -315 -1023 0
316 317 1026 0
-316 -317 -1026 0
318 323 344 0
-318 -323 -344 0
318 325 346 0
-318 -325 -346 0
318 327 348 0
-318 -327 -348 0
318 335 356 0
-318 -335 -356 0
318 337 358 0
-318 -337 -358 0
318 339 360 0
-318 -339 -360 0
319 325 476 0
-319 -325 -476 0
319 327 478 0
-319 -327 -478 0
319 331 485 0
-319 -331 -485 0
319 332 486 0
-319 -332 -486 0
319 339 490 0
-319 -339 -490 0
320 325 508 0
-320 -325 -508 0
320 327 510 0
-320 -327 -510 0
320 328 513 0
-320 -328 -513 0
320 337 522 0
-320 -337 -522 0
321 327 541 0
-321 -327 -541 0
321 328 544 0
-321 -328 -544 0
321 329 547 0
-321 -329 -547 0
321 335 553 0
-321 -335 -553 0
321 338 554 0
-321 -338 -554 0
322 323 571 0
-322 -323 -571 0
322 327 572 0
-322 -327 -572 0
322 331 581 0
-322 -331 -581 0
322 333 583 0
-322 -333 -583 0
323 328 589 0
-323 -328 -589 0
323 329 593 0
-323 -329 -593 0
323 336 600 0
-323 -336 -600 0
324 325 616 0
-324 -325 -616 0
324 328 618 0
-324 -328 -618 0
324 330 624 0
-324 -330 -624 0
324 335 629 0
-324 -335 -629 0
325 329 636 0
-325 -329 -636 0
325 338 645 0
-325 -338 -645 0
326 327 675 0
-326 -327 -675 0
326 329 678 0
-326 -329 -678 0
326 330 681 0
-326 -330 -681 0
326 337 688 0
-326 -337 -688 0
328 331 761 0
-328 -331 -761 0
328 339 769 0
-328 -339 -769 0
329 331 831 0
-329 -331 -831 0
330 332 886 0
-330 -332 -886 0
330 333 889 0
-330 -333 -889 0
330 339 895 0
-330 -339 -895 0
331 335 922 0
-331 -335 -922 0
331 337 924 0
-331 -337 -924 0
332 335 966 0
-332 -335 -966 0
332 336 968 0
-332 -336 -968 0
332 338 970 0
-332 -338 -970 0
333 337 1005 0
-333 -337 -1005 0
333 338 1006 0
-333 -338 -1006 0
334 335 1019 0
-334 -335 -1019 0
334 339 1020 0
-334 -339 -1020 0
336 337 1024 0
-336 -337 -1024 0
338 339 1027 0
-338 -339 -1027 0
340 345 365 0
-340 -345 -365 0
340 347 367 0
-340 -347 -367 0
340 349 369 0
-340 -349 -369 0
340 357 377 0
-340 -357 -377 0
340 359 379 0
-340 -359 -379 0
341 347 493 0
-341 -347 -493 0
341 349 495 0
-341 -349 -495 0
341 353 502 0
-341 -353 -502 0
341 354 503 0
-341 -354 -503 0
342 347 524 0
-342 -347 -524 0
342 349 526 0
-342 -349 -526 0
342 350 529 0
-342 -350 -529 0
342 359 538 0
-342 -359 -538 0
343 349 557 0
-343 -349 -557 0
343 350 560 0
-343 -350 -560 0
343 351 563 0
-343 -351 -563 0
343 357 569 0
-343 -357 -569 0
343 360 570 0
-343 -360 -570 0
344 345 586 0
-344 -345 -586 0
344 349 587 0
-344 -349 -587 0
344 353 596 0
-344 -353 -596 0
344 355 598 0
-344 -355 -598 0
345 350 604 0
-345 -350 -604 0
345 351 608 0
-345 -351 -608 0
345 358 615 0
-345 -358 -615 0
346 347 631 0
-346 -347 -631 0
346 350 633 0
-346 -350 -633 0
346 352 639 0
-346 -352 -639 0
346 357 644 0
-346 -357 -644 0
347 351 651 0
-347 -351 -651 0
347 360 660 0
-347 -360 -660 0
348 349 689 0
-348 -349 -689 0
348 351 692 0
-348 -351 -692 0
348 352 695 0
-348 -352 -695 0
348 359 702 0
-348 -359 -702 0
350 353 774 0
-350 -353 -774 0
351 353 842 0
-351 -353 -842 0
352 354 897 0
-352 -354 -897 0
352 355 900 0
-352 -355 -900 0
353 357 932 0
-353 -357 -932 0
353 359 934 0
-353 -359 -934 0
354 357 974 0
-354 -357 -974 0
354 358 976 0
-354 -358 -976 0
354 360 978 0
-354 -360 -978 0
355 359 1009 0
-355 -359 -1009 0
355 360 1010 0
-355 -360 -1010 0
356 357 1021 0
-356 -357 -1021 0
358 359 1025 0
-358 -359 -1025 0
361 366 385 0
-361 -366 -385 0
361 368 387 0
-361 -368 -387 0
361 370 389 0
-361 -370 -389 0
361 378 397 0
-361 -378 -397 0
361 380 399 0
-361 -380 -399 0
362 368 509 0
-362 -368 -509 0
362 370 511 0
-362 -370 -511 0
362 374 518 0
-362 -374 -518 0
362 375 519 0
-362 -375 -519 0
363 368 540 0
-363 -368 -540 0
363 370 542 0
-363 -370 -542 0
363 371 545 0
-363 -371 -545 0
363 380 554 0
-363 -380 -554 0
364 370 573 0
-364 -370 -573 0
364 371 576 0
-364 -371 -576 0
364 372 579 0
-364 -372 -579 0
364 378 585 0
-364 -378 -585 0
365 366 601 0
-365 -366 -601 0
365 370 602 0
-365 -370 -602 0
365 374 611 0
-365 -374 -611 0
365 376 613 0
-365 -376 -613 0
366 371 619 0
-366 -371 -619 0
366 372 623 0
-366 -372 -623 0
366 379 630 0
-366 -379 -630 0
367 368 646 0
-367 -368 -646 0
367 371 648 0
-367 -371 -648 0
367 373 654 0
-367 -373 -654 0
367 378 659 0
-367 -378 -659 0
368 372 666 0
-368 -372 -666 0
369 370 703 0
-369 -370 -703 0
369 372 706 0
-369 -372 -706 0
369 373 709 0
-369 -373 -709 0
369 380 716 0
-369 -380 -716 0
371 374 786 0
-371 -374 -786 0
372 374 853 0
-372 -374 -853 0
373 375 907 0
-373 -375 -907 0
373 376 910 0
-373 -376 -910 0
374 378 942 0
-374 -378 -942 0
374 380 944 0
-374 -380 -944 0
375 378 982 0
-375 -378 -982 0
375 379 984 0
-375 -379 -984 0
376 380 1013 0
-376 -380 -1013 0
377 378 1022 0
-377 -378 -1022 0
379 380 1026 0
-379 -380 -1026 0
381 386 405 0
-381 -386 -405 0
381 388 407 0
-381 -388 -407 0
381 390 409 0
-381 -390 -409 0
381 398 417 0
-381 -398 -417 0
381 400 419 0
-381 -400 -419 0
382 388 525 0
-382 -388 -525 0
382 390 527 0
-382 -390 -527 0
382 394 534 0
-382 -394 -534 0
382 395 535 0
-382 -395 -535 0
383 388 556 0
-383 -388 -556 0
383 390 558 0
-383 -390 -558 0
383 391 561 0
-383 -391 -561 0
383 400 570 0
-383 -400 -570 0
384 390 588 0
-384 -390 -588 0
384 391 591 0
-384 -391 -591 0
384 392 594 0
-384 -392 -594 0
384 398 600 0
-384 -398 -600 0
385 386 616 0
-385 -386 -616 0
385 390 617 0
-385 -390 -617 0
385 394 626 0
-385 -394 -626 0
385 396 628 0
-385 -396 -628 0
386 391 634 0
-386 -391 -634 0
386 392 638 0
-386 -392 -638 0
386 399 645 0
-386 -399 -645 0
387 388 661 0
-387 -388 -661 0
387 391 663 0
-387 -391 -663 0
387 393 669 0
-387 -393 -669 0
387 398 674 0
-387 -398 -674 0
388 392 680 0
-388 -392 -680 0
389 390 717 0
-389 -390 -717 0
389 392 720 0
-389 -392 -720 0
389 393 723 0
-389 -393 -723 0
389 400 730 0
-389 -400 -730 0
391 394 798 0
-391 -394 -798 0
392 394 864 0
-392 -394 -864 0
393 395 917 0
-393 -395 -917 0
393 396 920 0
-393 -396 -920 0
394 398 952 0
-394 -398 -952 0
394 400 954 0
-394 -400 -954 0
395 398 989 0
-395 -398 -989 0
395 399 991 0
-395 -399 -991 0
396 400 1016 0
-396 -400 -1016 0
397 398 1023 0
-397 -398 -1023 0
399 400 1027 0
-399 -400 -1027 0
401 406 424 0
-401 -406 -424 0
401 408 426 0
-401 -408 -426 0
401 410 428 0
-401 -410 -428 0
401 418 436 0
-401 -418 -436 0
402 408 541 0
-402 -408 -541 0
402 410 543 0
-402 -410 -543 0
402 414 550 0
-402 -414 -550 0
402 415 551 0
-402 -415 -551 0
403 408 572 0
-403 -408 -572 0
403 410 574 0
-403 -410 -574 0
403 411 577 0
-403 -411 -577 0
404 410 603 0
-404 -410 -603 0
404 411 606 0
-404 -411 -606 0
404 412 609 0
-404 -412 -609 0
404 418 615 0
-404 -418 -615 0
405 406 631 0
-405 -406 -631 0
405 410 632 0
-405 -410 -632 0
405 414 641 0
-405 -414 -641 0
405 416 643 0
-405 -416 -643 0
406 411 649 0
-406 -411 -649 0
406 412 653 0
-406 -412 -653 0
406 419 660 0
-406 -419 -660 0
407 408 675 0
-407 -408 -675 0
407 411 677 0
-407 -411 -677 0
407 413 683 0
-407 -413 -683 0
407 418 688 0
-407 -418 -688 0
408 412 694 0
-408 -412 -694 0
409 410 731 0
-409 -410 -731 0
409 412 734 0
-409 -412 -734 0
409 413 737 0
-409 -413 -737 0
411 414 810 0
-411 -414 -810 0
412 414 875 0
-412 -414 -875 0
413 415 927 0
-413 -415 -927 0
413 416 930 0
-413 -416 -930 0
414 418 961 0
-414 -418 -961 0
415 418 995 0
-415 -418 -995 0
415 419 997 0
-415 -419 -997 0
417 418 1024 0
-417 -418 -1024 0
420 425 442 0
-420 -425 -442 0
420 427 444 0
-420 -427 -444 0
420 429 446 0
-420 -429 -446 0
420 437 454 0
-420 -437 -454 0
421 427 557 0
-421 -427 -557 0
421 429 559 0
-421 -429 -559 0
421 433 566 0
-421 -433 -566 0
421 434 567 0
-421 -434 -567 0
422 427 587 0
-422 -427 -587 0
422 429 589 0
-422 -429 -589 0
422 430 592 0
-422 -430 -592 0
423 429 618 0
-423 -429 -618 0
423 430 621 0
-423 -430 -621 0
423 431 624 0
-423 -431 -624 0
423 437 630 0
-423 -437 -630 0
424 425 646 0
-424 -425 -646 0
424 429 647 0
-424 -429 -647 0
424 433 656 0
-424 -433 -656 0
424 435 658 0
-424 -435 -658 0
425 430 664 0
-425 -430 -664 0
425 431 668 0
-425 -431 -668 0
426 427 689 0
-426 -427 -689 0
426 430 691 0
-426 -430 -691 0
426 432 697 0
-426 -432 -697 0
426 437 702 0
-426 -437 -702 0
427 431 708 0
-427 -431 -708 0
428 429 744 0
-428 -429 -744 0
428 431 747 0
-428 -431 -747 0
428 432 750 0
-428 -432 -750 0
430 433 822 0
-430 -433 -822 0
431 433 886 0
-431 -433 -886 0
432 434 937 0
-432 -434 -937 0
432 435 940 0
-432 -435 -940 0
433 437 969 0
-433 -437 -969 0
434 437 1001 0
-434 -437 -1001 0
436 437 1025 0
-436 -437 -1025 0
438 443 460 0
-438 -443 -460 0
438 445 462 0
-438 -445 -462 0
438 447 464 0
-438 -447 -464 0
438 455 472 0
-438 -455 -472 0
439 445 573 0
-439 -445 -573 0
439 447 575 0
-439 -447 -575 0
439 451 582 0
-439 -451 -582 0
439 452 583 0
-439 -452 -583 0
440 445 602 0
-440 -445 -602 0
440 447 604 0
-440 -447 -604 0
440 448 607 0
-440 -448 -607 0
441 447 633 0
-441 -447 -633 0
441 448 636 0
-441 -448 -636 0
441 449 639 0
-441 -449 -639 0
441 455 645 0
-441 -455 -645 0
442 443 661 0
-442 -443 -661 0
442 447 662 0
-442 -447 -662 0
442 451 671 0
-442 -451 -671 0
442 453 673 0
-442 -453 -673 0
443 448 678 0
-443 -448 -678 0
443 449 682 0
-443 -449 -682 0
444 445 703 0
-444 -445 -703 0
444 448 705 0
-444 -448 -705 0
444 450 711 0
-444 -450 -711 0
444 455 716 0
-444 -455 -716 0
445 449 722 0
-445 -449 -722 0
446 447 757 0
-446 -447 -757 0
446 449 760 0
-446 -449 -760 0
446 450 763 0
-446 -450 -763 0
448 451 834 0
-448 -451 -834 0
449 451 897 0
-449 -451 -897 0
450 452 947 0
-450 -452 -947 0
450 453 950 0
-450 -453 -950 0
451 455 977 0
-451 -455 -977 0
452 455 1006 0
-452 -455 -1006 0
454 455 1026 0
-454 -455 -1026 0
456 461 478 0
-456 -461 -478 0
456 463 480 0
-456 -463 -480 0
456 465 482 0
-456 -465 -482 0
456 473 490 0
-456 -473 -490 0
457 463 588 0
-457 -463 -588 0
457 465 590 0
-457 -465 -590 0
457 469 597 0
-457 -469 -597 0
457 470 598 0
-457 -470 -598 0
458 463 617 0
-458 -463 -617 0
458 465 619 0
-458 -465 -619 0
458 466 622 0
-458 -466 -622 0
459 465 648 0
-459 -465 -648 0
459 466 651 0
-459 -466 -651 0
459 467 654 0
-459 -467 -654 0
459 473 660 0
-459 -473 -660 0
460 461 675 0
-460 -461 -675 0
460 465 676 0
-460 -465 -676 0
460 469 685 0
-460 -469 -685 0
460 471 687 0
-460 -471 -687 0
461 466 692 0
-461 -466 -692 0
461 467 696 0
-461 -467 -696 0
462 463 717 0
-462 -463 -717 0
462 466 719 0
-462 -466 -719 0
462 468 725 0
-462 -468 -725 0
462 473 730 0
-462 -473 -730 0
463 467 736 0
-463 -467 -736 0
464 465 770 0
-464 -465 -770 0
464 467 773 0
-464 -467 -773 0
464 468 776 0
-464 -468 -776 0
466 469 845 0
-466 -469 -845 0
467 469 907 0
-467 -469 -907 0
468 470 956 0
-468 -470 -956 0
468 471 959 0
-468 -471 -959 0
469 473 985 0
-469 -473 -985 0
470 473 1010 0
-470 -473 -1010 0
472 473 1027 0
-472 -473 -1027 0
474 479 495 0
-474 -479 -495 0
474 481 497 0
-474 -481 -497 0
474 483 499 0
-474 -483 -499 0
475 481 603 0
-475 -481 -603 0
475 483 605 0
-475 -483 -605 0
475 487 612 0
-475 -487 -612 0
475 488 613 0
-475 -488 -613 0
476 481 632 0
-476 -481 -632 0
476 483 634 0
-476 -483 -634 0
476 484 637 0
-476 -484 -637 0
477 483 663 0
-477 -483 -663 0
477 484 666 0
-477 -484 -666 0
477 485 669 0
-477 -485 -669 0
478 479 689 0
-478 -479 -689 0
478 483 690 0
-478 -483 -690 0
478 487 699 0
-478 -487 -699 0
478 489 701 0
-478 -489 -701 0
479 484 706 0
-479 -484 -706 0
479 485 710 0
-479 -485 -710 0
480 481 731 0
-480 -481 -731 0
480 484 733 0
-480 -484 -733 0
480 486 739 0
-480 -486 -739 0
481 485 749 0
-481 -485 -749 0
482 483 782 0
-482 -483 -782 0
482 485 785 0
-482 -485 -785 0
482 486 788 0
-482 -486 -788 0
484 487 856 0
-484 -487 -856 0
485 487 917 0
-485 -487 -917 0
486 488 964 0
-486 -488 -964 0
486 489 967 0
-486 -489 -967 0
491 496 511 0
-491 -496 -511 0
491 498 513 0
-491 -498 -513 0
491 500 515 0
-491 -500 -515 0
492 498 618 0
-492 -498 -618 0
492 500 620 0
-492 -500 -620 0
492 504 627 0
-492 -504 -627 0
492 505 628 0
-492 -505 -628 0
493 498 647 0
-493 -498 -647 0
493 500 649 0
-493 -500 -649 0
493 501 652 0
-493 -501 -652 0
494 500 677 0
-494 -500 -677 0
494 501 680 0
-494 -501 -680 0
494 502 683 0
-494 -502 -683 0
495 496 703 0
-495 -496 -703 0
495 500 704 0
-495 -500 -704 0
495 504 713 0
-495 -504 -713 0
495 506 715 0
-495 -506 -715 0
496 501 720 0
-496 -501 -720 0
496 502 724 0
-496 -502 -724 0
497 498 744 0
-497 -498 -744 0
497 501 746 0
-497 -501 -746 0
497 503 752 0
-497 -503 -752 0
498 502 762 0
-498 -502 -762 0
499 500 794 0
-499 -500 -794 0
499 502 797 0
-499 -502 -797 0
499 503 800 0
-499 -503 -800 0
501 504 867 0
-501 -504 -867 0
502 504 927 0
-502 -504 -927 0
503 505 972 0
-503 -505 -972 0
503 506 975 0
-503 -506 -975 0
507 512 527 0
-507 -512 -527 0
507 514 529 0
-507 -514 -529 0
507 516 531 0
-507 -516 -531 0
508 514 633 0
-508 -514 -633 0
508 516 635 0
-508 -516 -635 0
508 520 642 0
-508 -520 -642 0
508 521 643 0
-508 -521 -643 0
509 514 662 0
-509 -514 -662 0
509 516 664 0
-509 -516 -664 0
509 517 667 0
-509 -517 -667 0
510 516 691 0
-510 -516 -691 0
510 517 694 0
-510 -517 -694 0
510 518 697 0
-510 -518 -697 0
511 512 717 0
-511 -512 -717 0
511 516 718 0
-511 -516 -718 0
511 520 727 0
-511 -520 -727 0
511 522 729 0
-511 -522 -729 0
512 517 734 0
-512 -517 -734 0
512 518 738 0
-512 -518 -738 0
513 514 757 0
-513 -514 -757 0
513 517 759 0
-513 -517 -759 0
513 519 765 0
-513 -519 -765 0
514 518 775 0
-514 -518 -775 0
515 516 806 0
-515 -516 -806 0
515 518 809 0
-515 -518 -809 0
515 519 812 0
-515 -519 -812 0
517 520 878 0
-517 -520 -878 0
518 520 937 0
-518 -520 -937 0
519 521 980 0
-519 -521 -980 0
519 522 983 0
-519 -522 -983 0
523 528 543 0
-523 -528 -543 0
523 530 545 0
-523 -530 -545 0
523 532 547 0
-523 -532 -547 0
524 530 648 0
-524 -530 -648 0
524 532 650 0
-524 -532 -650 0
524 536 657 0
-524 -536 -657 0
524 537 658 0
-524 -537 -658 0
525 530 676 0
-525 -530 -676 0
525 532 678 0
-525 -532 -678 0
525 533 681 0
-525 -533 -681 0
526 532 705 0
-526 -532 -705 0
526 533 708 0
-526 -533 -708 0
526 534 711 0
-526 -534 -711 0
527 528 731 0
-527 -528 -731 0
527 532 732 0
-527 -532 -732 0
527 536 741 0
-527 -536 -741 0
527 538 743 0
-527 -538 -743 0
528 533 747 0
-528 -533 -747 0
528 534 751 0
-528 -534 -751 0
529 530 770 0
-529 -530 -770 0
529 533 772 0
-529 -533 -772 0
529 535 778 0
-529 -535 -778 0
530 534 787 0
-530 -534 -787 0
531 532 818 0
-531 -532 -818 0
531 534 821 0
-531 -534 -821 0
531 535 824 0
-531 -535 -824 0
533 536 889 0
-533 -536 -889 0
534 536 947 0
-534 -536 -947 0
535 537 987 0
-535 -537 -987 0
535 538 990 0
-535 -538 -990 0
539 544 559 0
-539 -544 -559 0
539 546 561 0
-539 -546 -561 0
539 548 563 0
-539 -548 -563 0
540 546 663 0
-540 -546 -663 0
540 548 665 0
-540 -548 -665 0
540 552 672 0
-540 -552 -672 0
540 553 673 0
-540 -553 -673 0
541 546 690 0
-541 -546 -690 0
541 548 692 0
-541 -548 -692 0
541 549 695 0
-541 -549 -695 0
542 548 719 0
-542 -548 -719 0
542 549 722 0
-542 -549 -722 0
542 550 725 0
-542 -550 -725 0
543 544 744 0
-543 -544 -744 0
543 548 745 0
-543 -548 -745 0
543 552 754 0
-543 -552 -754 0
543 554 756 0
-543 -554 -756 0
544 549 760 0
-544 -549 -760 0
544 550 764 0
-544 -550 -764 0
545 546 782 0
-545 -546 -782 0
545 549 784 0
-545 -549 -784 0
545 551 790 0
-545 -551 -790 0
546 550 799 0
-546 -550 -799 0
547 548 830 0
-547 -548 -830 0
547 550 833 0
-547 -550 -833 0
547 551 836 0
-547 -551 -836 0
549 552 900 0
-549 -552 -900 0
550 552 956 0
-550 -552 -956 0
551 553 993 0
-551 -553 -993 0
551 554 996 0
-551 -554 -996 0
555 560 575 0
-555 -560 -575 0
555 562 577 0
-555 -562 -577 0
555 564 579 0
-555 -564 -579 0
556 562 677 0
-556 -562 -677 0
556 564 679 0
-556 -564 -679 0
556 568 686 0
-556 -568 -686 0
556 569 687 0
-556 -569 -687 0
557 562 704 0
-557 -562 -704 0
557 564 706 0
-557 -564 -706 0
557 565 709 0
-557 -565 -709 0
558 564 733 0
-558 -564 -733 0
558 565 736 0
-558 -565 -736 0
558 566 739 0
-558 -566 -739 0
559 560 757 0
-559 -560 -757 0
559 564 758 0
-559 -564 -758 0
559 568 767 0
-559 -568 -767 0
559 570 769 0
-559 -570 -769 0
560 565 773 0
-560 -565 -773 0
560 566 777 0
-560 -566 -777 0
561 562 794 0
-561 -562 -794 0
561 565 796 0
-561 -565 -796 0
561 567 802 0
-561 -567 -802 0
562 566 811 0
-562 -566 -811 0
563 564 841 0
-563 -564 -841 0
563 566 844 0
-563 -566 -844 0
563 567 847 0
-563 -567 -847 0
565 568 910 0
-565 -568 -910 0
566 568 964 0
-566 -568 -964 0
567 569 999 0
-567 -569 -999 0
567 570 1002 0
-567 -570 -1002 0
571 576 590 0
-571 -576 -590 0
571 578 592 0
-571 -578 -592 0
571 580 594 0
-571 -580 -594 0
572 578 691 0
-572 -578 -691 0
572 580 693 0
-572 -580 -693 0
572 584 700 0
-572 -584 -700 0
572 585 701 0
-572 -585 -701 0
573 578 718 0
-573 -578 -718 0
573 580 720 0
-573 -580 -720 0
573 581 723 0
-573 -581 -723 0
574 580 746 0
-574 -580 -746 0
574 581 749 0
-574 -581 -749 0
574 582 752 0
-574 -582 -752 0
575 576 770 0
-575 -576 -770 0
575 580 771 0
-575 -580 -771 0
575 584 780 0
-575 -584 -780 0
576 581 785 0
-576 -581 -785 0
576 582 789 0
-576 -582 -789 0
577 578 806 0
-577 -578 -806 0
577 581 808 0
-577 -581 -808 0
577 583 814 0
-577 -583 -814 0
578 582 823 0
-578 -582 -823 0
579 580 852 0
-579 -580 -852 0
579 582 855 0
-579 -582 -855 0
579 583 858 0
-579 -583 -858 0
581 584 920 0
-581 -584 -920 0
582 584 972 0
-582 -584 -972 0
583 585 1004 0
-583 -585 -1004 0
586 591 605 0
-586 -591 -605 0
586 593 607 0
-586 -593 -607 0
586 595 609 0
-586 -595 -609 0
587 593 705 0
-587 -593 -705 0
587 595 707 0
-587 -595 -707 0
587 599 714 0
-587 -599 -714 0
587 600 715 0
-587 -600 -715 0
588 593 732 0
-588 -593 -732 0
588 595 734 0
-588 -595 -734 0
588 596 737 0
-588 -596 -737 0
589 595 759 0
-589 -595 -759 0
589 596 762 0
-589 -596 -762 0
589 597 765 0
-589 -597 -765 0
590 591 782 0
-590 -591 -782 0
590 595 783 0
-590 -595 -783 0
590 599 792 0
-590 -599 -792 0
591 596 797 0
-591 -596 -797 0
591 597 801 0
-591 -597 -801 0
592 593 818 0
-592 -593 -818 0
592 596 820 0
-592 -596 -820 0
592 598 826 0
-592 -598 -826 0
593 597 835 0
-593 -597 -835 0
594 595 863 0
-594 -595 -863 0
594 597 866 0
-594 -597 -866 0
594 598 869 0
-594 -598 -869 0
596 599 930 0
-596 -599 -930 0
597 599 980 0
-597 -599 -980 0
598 600 1008 0
-598 -600 -1008 0
601 606 620 0
-601 -606 -620 0
601 608 622 0
-601 -608 -622 0
601 610 624 0
-601 -610 -624 0
602 608 719 0
-602 -608 -719 0
602 610 721 0
-602 -610 -721 0
602 614 728 0
-602 -614 -728 0
602 615 729 0
-602 -615 -729 0
603 608 745 0
-603 -608 -745 0
603 610 747 0
-603 -610 -747 0
603 611 750 0
-603 -611 -750 0
604 610 772 0
-604 -610 -772 0
604 611 775 0
-604 -611 -775 0
604 612 778 0
-604 -612 -778 0
605 606 794 0
-605 -606 -794 0
605 610 795 0
-605 -610 -795 0
605 614 804 0
-605 -614 -804 0
606 611 809 0
-606 -611 -809 0
606 612 813 0
-606 -612 -813 0
607 608 830 0
-607 -608 -830 0
607 611 832 0
-607 -611 -832 0
607 613 838 0
-607 -613 -838 0
608 612 846 0
-608 -612 -846 0
609 610 874 0
-609 -610 -874 0
609 612 877 0
-609 -612 -877 0
609 613 880 0
-609 -613 -880 0
611 614 940 0
-611 -614 -940 0
612 614 987 0
-612 -614 -987 0
613 615 1012 0
-613 -615 -1012 0
616 621 635 0
-616 -621 -635 0
616 623 637 0
-616 -623 -637 0
616 625 639 0
-616 -625 -639 0
617 623 733 0
-617 -623 -733 0
617 625 735 0
-617 -625 -735 0
617 629 742 0
-617 -629 -742 0
617 630 743 0
-617 -630 -743 0
618 623 758 0
-618 -623 -758 0
618 625 760 0
-618 -625 -760 0
618 626 763 0
-618 -626 -763 0
619 625 784 0
-619 -625 -784 0
619 626 787 0
-619 -626 -787 0
619 627 790 0
-619 -627 -790 0
620 621 806 0
-620 -621 -806 0
620 625 807 0
-620 -625 -807 0
620 629 816 0
-620 -629 -816 0
621 626 821 0
-621 -626 -821 0
621 627 825 0
-621 -627 -825 0
622 623 841 0
-622 -623 -841 0
622 626 843 0
-622 -626 -843 0
622 628 849 0
-622 -628 -849 0
623 627 857 0
-623 -627 -857 0
624 625 885 0
-624 -625 -885 0
624 627 888 0
-624 -627 -888 0
624 628 891 0
-624 -628 -891 0
626 629 950 0
-626 -629 -950 0
627 629 993 0
-627 -629 -993 0
628 630 1015 0
-628 -630 -1015 0
631 636 650 0
-631 -636 -650 0
631 638 652 0
-631 -638 -652 0
631 640 654 0
-631 -640 -654 0
632 638 746 0
-632 -638 -746 0
632 640 748 0
-632 -640 -748 0
632 644 755 0
-632 -644 -755 0
632 645 756 0
-632 -645 -756 0
633 638 771 0
-633 -638 -771 0
633 640 773 0
-633 -640 -773 0
633 641 776 0
-633 -641 -776 0
634 640 796 0
-634 -640 -796 0
634 641 799 0
-634 -641 -799 0
634 642 802 0
-634 -642 -802 0
635 636 818 0
-635 -636 -818 0
635 640 819 0
-635 -640 -819 0
635 644 828 0
-635 -644 -828 0
636 641 833 0
-636 -641 -833 0
636 642 837 0
-636 -642 -837 0
637 638 852 0
-637 -638 -852 0
637 641 854 0
-637 -641 -854 0
637 643 860 0
-637 -643 -860 0
638 642 868 0
-638 -642 -868 0
639 640 896 0
-639 -640 -896 0
639 642 899 0
-639 -642 -899 0
639 643 902 0
-639 -643 -902 0
641 644 959 0
-641 -644 -959 0
642 644 999 0
-642 -644 -999 0
643 645 1018 0
-643 -645 -1018 0
646 651 665 0
-646 -651 -665 0
646 653 667 0
-646 -653 -667 0
646 655 669 0
-646 -655 -669 0
647 653 759 0
-647 -653 -759 0
647 655 761 0
-647 -655 -761 0
647 659 768 0
-647 -659 -768 0
647 660 769 0
-647 -660 -769 0
648 653 783 0
-648 -653 -783 0
648 655 785 0
-648 -655 -785 0
648 656 788 0
-648 -656 -788 0
649 655 808 0
-649 -655 -808 0
649 656 811 0
-649 -656 -811 0
649 657 814 0
-649 -657 -814 0
650 651 830 0
-650 -651 -830 0
650 655 831 0
-650 -655 -831 0
650 659 840 0
-650 -659 -840 0
651 656 844 0
-651 -656 -844 0
651 657 848 0
-651 -657 -848 0
652 653 863 0
-652 -653 -863 0
652 656 865 0
-652 -656 -865 0
652 658 871 0
-652 -658 -871 0
653 657 879 0
-653 -657 -879 0
654 655 906 0
-654 -655 -906 0
654 657 909 0
-654 -657 -909 0
654 658 912 0
-654 -658 -912 0
656 659 967 0
-656 -659 -967 0
657 659 1004 0
-657 -659 -1004 0
658 660 1020 0
-658 -660 -1020 0
661 666 679 0
-661 -666 -679 0
661 668 681 0
-661 -668 -681 0
661 670 683 0
-661 -670 -683 0
662 668 772 0
-662 -668 -772 0
662 670 774 0
-662 -670 -774 0
662 674 781 0
-662 -674 -781 0
663 668 795 0
-663 -668 -795 0
663 670 797 0
-663 -670 -797 0
663 671 800 0
-663 -671 -800 0
664 670 820 0
-664 -670 -820 0
664 671 823 0
-664 -671 -823 0
664 672 826 0
-664 -672 -826 0
665 666 841 0
-665 -666 -841 0
665 670 842 0
-665 -670 -842 0
665 674 851 0
-665 -674 -851 0
666 671 855 0
-666 -671 -855 0
666 672 859 0
-666 -672 -859 0
667 668 874 0
-667 -668 -874 0
667 671 876 0
-667 -671 -876 0
667 673 882 0
-667 -673 -882 0
668 672 890 0
-668 -672 -890 0
669 670 916 0
-669 -670 -916 0
669 672 919 0
-669 -672 -919 0
669 673 922 0
-669 -673 -922 0
671 674 975 0
-671 -674 -975 0
672 674 1008 0
-672 -674 -1008 0
675 680 693 0
-675 -680 -693 0
675 682 695 0
-675 -682 -695 0
675 684 697 0
-675 -684 -697 0
676 682 784 0
-676 -682 -784 0
676 684 786 0
-676 -684 -786 0
676 688 793 0
-676 -688 -793 0
677 682 807 0
-677 -682 -807 0
677 684 809 0
-677 -684 -809 0
677 685 812 0
-677 -685 -812 0
678 684 832 0
-678 -684 -832 0
678 685 835 0
-678 -685 -835 0
678 686 838 0
-678 -686 -838 0
679 680 852 0
-679 -680 -852 0
679 684 853 0
-679 -684 -853 0
679 688 862 0
-679 -688 -862 0
680 685 866 0
-680 -685 -866 0
680 686 870 0
-680 -686 -870 0
681 682 885 0
-681 -682 -885 0
681 685 887 0
-681 -685 -887 0
681 687 893 0
-681 -687 -893 0
682 686 901 0
-682 -686 -901 0
683 684 926 0
-683 -684 -926 0
683 686 929 0
-683 -686 -929 0
683 687 932 0
-683 -687 -932 0
685 688 983 0
-685 -688 -983 0
686 688 1012 0
-686 -688 -1012 0
689 694 707 0
-689 -694 -707 0
689 696 709 0
-689 -696 -709 0
689 698 711 0
-689 -698 -711 0
690 696 796 0
-690 -696 -796 0
690 698 798 0
-690 -698 -798 0
690 702 805 0
-690 -702 -805 0
691 696 819 0
-691 -696 -819 0
691 698 821 0
-691 -698 -821 0
691 699 824 0
-691 -699 -824 0
692 698 843 0
-692 -698 -843 0
692 699 846 0
-692 -699 -846 0
692 700 849 0
-692 -700 -849 0
693 694 863 0
-693 -694 -863 0
693 698 864 0
-693 -698 -864 0
693 702 873 0
-693 -702 -873 0
694 699 877 0
-694 -699 -877 0
694 700 881 0
-694 -700 -881 0
695 696 896 0
-695 -696 -896 0
695 699 898 0
-695 -699 -898 0
695 701 904 0
-695 -701 -904 0
696 700 911 0
-696 -700 -911 0
697 698 936 0
-697 -698 -936 0
697 700 939 0
-697 -700 -939 0
697 701 942 0
-697 -701 -942 0
699 702 990 0
-699 -702 -990 0
700 702 1015 0
-700 -702 -1015 0
703 708 721 0
-703 -708 -721 0
703 710 723 0
-703 -710 -723 0
703 712 725 0
-703 -712 -725 0
704 710 808 0
-704 -710 -808 0
704 712 810 0
-704 -712 -810 0
704 716 817 0
-704 -716 -817 0
705 710 831 0
-705 -710 -831 0
705 712 833 0
-705 -712 -833 0
705 713 836 0
-705 -713 -836 0
706 712 854 0
-706 -712 -854 0
706 713 857 0
-706 -713 -857 0
706 714 860 0
-706 -714 -860 0
707 708 874 0
-707 -708 -874 0
707 712 875 0
-707 -712 -875 0
707 716 884 0
-707 -716 -884 0
708 713 888 0
-708 -713 -888 0
708 714 892 0
-708 -714 -892 0
709 710 906 0
-709 -710 -906 0
709 713 908 0
-709 -713 -908 0
709 715 914 0
-709 -715 -914 0
710 714 921 0
-710 -714 -921 0
711 712 946 0
-711 -712 -946 0
711 714 949 0
-711 -714 -949 0
711 715 952 0
-711 -715 -952 0
713 716 996 0
-713 -716 -996 0
714 716 1018 0
-714 -716 -1018 0
717 722 735 0
-717 -722 -735 0
717 724 737 0
-717 -724 -737 0
717 726 739 0
-717 -726 -739 0
718 724 820 0
-718 -724 -820 0
718 726 822 0
-718 -726 -822 0
718 730 829 0
-718 -730 -829 0
719 724 842 0
-719 -724 -842 0
719 726 844 0
-719 -726 -844 0
719 727 847 0
-719 -727 -847 0
720 726 865 0
-720 -726 -865 0
720 727 868 0
-720 -727 -868 0
720 728 871 0
-720 -728 -871 0
721 722 885 0
-721 -722 -885 0
721 726 886 0
-721 -726 -886 0
721 730 895 0
-721 -730 -895 0
722 727 899 0
-722 -727 -899 0
722 728 903 0
-722 -728 -903 0
723 724 916 0
-723 -724 -916 0
723 727 918 0
-723 -727 -918 0
723 729 924 0
-723 -729 -924 0
724 728 931 0
-724 -728 -931 0
725 726 955 0
-725 -726 -955 0
725 728 958 0
-725 -728 -958 0
725 729 961 0
-725 -729 -961 0
727 730 1002 0
-727 -730 -1002 0
728 730 1020 0
-728 -730 -1020 0
731 736 748 0
-731 -736 -748 0
731 738 750 0
-731 -738 -750 0
731 740 752 0
-731 -740 -752 0
732 738 832 0
-732 -738 -832 0
732 740 834 0
-732 -740 -834 0
733 738 853 0
-733 -738 -853 0
733 740 855 0
-733 -740 -855 0
733 741 858 0
-733 -741 -858 0
734 740 876 0
-734 -740 -876 0
734 741 879 0
-734 -741 -879 0
734 742 882 0
-734 -742 -882 0
735 736 896 0
-735 -736 -896 0
735 740 897 0
-735 -740 -897 0
736 741 909 0
-736 -741 -909 0
736 742 913 0
-736 -742 -913 0
737 738 926 0
-737 -738 -926 0
737 741 928 0
-737 -741 -928 0
737 743 934 0
-737 -743 -934 0
738 742 941 0
-738 -742 -941 0
739 740 963 0
-739 -740 -963 0
739 742 966 0
-739 -742 -966 0
739 743 969 0
-739 -743 -969 0
744 749 761 0
-744 -749 -761 0
744 751 763 0
-744 -751 -763 0
744 753 765 0
-744 -753 -765 0
745 751 843 0
-745 -751 -843 0
745 753 845 0
-745 -753 -845 0
746 751 864 0
-746 -751 -864 0
746 753 866 0
-746 -753 -866 0
746 754 869 0
-746 -754 -869 0
747 753 887 0
-747 -753 -887 0
747 754 890 0
-747 -754 -890 0
747 755 893 0
-747 -755 -893 0
748 749 906 0
-748 -749 -906 0
748 753 907 0
-748 -753 -907 0
749 754 919 0
-749 -754 -919 0
749 755 923 0
-749 -755 -923 0
750 751 936 0
-750 -751 -936 0
750 754 938 0
-750 -754 -938 0
750 756 944 0
-750 -756 -944 0
751 755 951 0
-751 -755 -951 0
752 753 971 0
-752 -753 -971 0
752 755 974 0
-752 -755 -974 0
752 756 977 0
-752 -756 -977 0
757 762 774 0
-757 -762 -774 0
757 764 776 0
-757 -764 -776 0
757 766 778 0
-757 -766 -778 0
758 764 854 0
-758 -764 -854 0
758 766 856 0
-758 -766 -856 0
759 764 875 0
-759 -764 -875 0
759 766 877 0
-759 -766 -877 0
759 767 880 0
-759 -767 -880 0
760 766 898 0
-760 -766 -898 0
760 767 901 0
-760 -767 -901 0
760 768 904 0
-760 -768 -904 0
761 762 916 0
-761 -762 -916 0
761 766 917 0
-761 -766 -917 0
762 767 929 0
-762 -767 -929 0
762 768 933 0
-762 -768 -933 0
763 764 946 0
-763 -764 -946 0
763 767 948 0
-763 -767 -948 0
763 769 954 0
-763 -769 -954 0
764 768 960 0
-764 -768 -960 0
765 766 979 0
-765 -766 -979 0
765 768 982 0
-765 -768 -982 0
765 769 985 0
-765 -769 -985 0
770 775 786 0
-770 -775 -786 0
770 777 788 0
-770 -777 -788 0
770 779 790 0
-770 -779 -790 0
771 777 865 0
-771 -777 -865 0
771 779 867 0
-771 -779 -867 0
772 777 886 0
-772 -777 -886 0
772 779 888 0
-772 -779 -888 0
772 780 891 0
-772 -780 -891 0
773 779 908 0
-773 -779 -908 0
773 780 911 0
-773 -780 -911 0
773 781 914 0
-773 -781 -914 0
774 775 926 0
-774 -775 -926 0
774 779 927 0
-774 -779 -927 0
775 780 939 0
-775 -780 -939 0
775 781 943 0
-775 -781 -943 0
776 777 955 0
-776 -777 -955 0
776 780 957 0
-776 -780 -957 0
777 781 968 0
-777 -781 -968 0
778 779 986 0
-778 -779 -986 0
778 781 989 0
-778 -781 -989 0
782 787 798 0
-782 -787 -798 0
782 789 800 0
-782 -789 -800 0
782 791 802 0
-782 -791 -802 0
783 789 876 0
-783 -789 -876 0
783 791 878 0
-783 -791 -878 0
784 789 897 0
-784 -789 -897 0
784 791 899 0
-784 -791 -899 0
784 792 902 0
-784 -792 -902 0
785 791 918 0
-785 -791 -918 0
785 792 921 0
-785 -792 -921 0
785 793 924 0
-785 -793 -924 0
786 787 936 0
-786 -787 -936 0
786 791 937 0
-786 -791 -937 0
787 792 949 0
-787 -792 -949 0
787 793 953 0
-787 -793 -953 0
788 789 963 0
-788 -789 -963 0
788 792 965 0
-788 -792 -965 0
789 793 976 0
-789 -793 -976 0
790 791 992 0
-790 -791 -992 0
790 793 995 0
-790 -793 -995 0
794 799 810 0
-794 -799 -810 0
794 801 812 0
-794 -801 -812 0
794 803 814 0
-794 -803 -814 0
795 801 887 0
-795 -801 -887 0
795 803 889 0
-795 -803 -889 0
796 801 907 0
-796 -801 -907 0
796 803 909 0
-796 -803 -909 0
796 804 912 0
-796 -804 -912 0
797 803 928 0
-797 -803 -928 0
797 804 931 0
-797 -804 -931 0
797 805 934 0
-797 -805 -934 0
798 799 946 0
-798 -799 -946 0
798 803 947 0
-798 -803 -947 0
799 804 958 0
-799 -804 -958 0
799 805 962 0
-799 -805 -962 0
800 801 971 0
-800 -801 -971 0
800 804 973 0
-800 -804 -973 0
801 805 984 0
-801 -805 -984 0
802 803 998 0
-802 -803 -998 0
802 805 1001 0
-802 -805 -1001 0
806 811 822 0
-806 -811 -822 0
806 813 824 0
-806 -813 -824 0
806 815 826 0
-806 -815 -826 0
807 813 898 0
-807 -813 -898 0
807 815 900 0
-807 -815 -900 0
808 813 917 0
-808 -813 -917 0
808 815 919 0
-808 -815 -919 0
808 816 922 0
-808 -816 -922 0
809 815 938 0
-809 -815 -938 0
809 816 941 0
-809 -816 -941 0
809 817 944 0
-809 -817 -944 0
810 811 955 0
-810 -811 -955 0
810 815 956 0
-810 -815 -956 0
811 816 966 0
-811 -816 -966 0
811 817 970 0
-811 -817 -970 0
812 813 979 0
-812 -813 -979 0
812 816 981 0
-812 -816 -981 0
813 817 991 0
-813 -817 -991 0
814 815 1003 0
-814 -815 -1003 0
814 817 1006 0
-814 -817 -1006 0
818 823 834 0
-818 -823 -834 0
818 825 836 0
-818 -825 -836 0
818 827 838 0
-818 -827 -838 0
819 825 908 0
-819 -825 -908 0
819 827 910 0
-819 -827 -910 0
820 825 927 0
-820 -825 -927 0
820 827 929 0
-820 -827 -929 0
820 828 932 0
-820 -828 -932 0
821 827 948 0
-821 -827 -948 0
821 828 951 0
-821 -828 -951 0
821 829 954 0
-821 -829 -954 0
822 823 963 0
-822 -823 -963 0
822 827 964 0
-822 -827 -964 0
823 828 974 0
-823 -828 -974 0
823 829 978 0
-823 -829 -978 0
824 825 986 0
-824 -825 -986 0
824 828 988 0
-824 -828 -988 0
825 829 997 0
-825 -829 -997 0
826 827 1007 0
-826 -827 -1007 0
826 829 1010 0
-826 -829 -1010 0
830 835 845 0
-830 -835 -845 0
830 837 847 0
-830 -837 -847 0
830 839 849 0
-830 -839 -849 0
831 837 918 0
-831 -837 -918 0
831 839 920 0
-831 -839 -920 0
832 837 937 0
-832 -837 -937 0
832 839 939 0
-832 -839 -939 0
832 840 942 0
-832 -840 -942 0
833 839 957 0
-833 -839 -957 0
833 840 960 0
-833 -840 -960 0
834 835 971 0
-834 -835 -971 0
834 839 972 0
-834 -839 -972 0
835 840 982 0
-835 -840 -982 0
836 837 992 0
-836 -837 -992 0
836 840 994 0
-836 -840 -994 0
838 839 1011 0
-838 -839 -1011 0
841 846 856 0
-841 -846 -856 0
841 848 858 0
-841 -848 -858 0
841 850 860 0
-841 -850 -860 0
842 848 928 0
-842 -848 -928 0
842 850 930 0
-842 -850 -930 0
843 848 947 0
-843 -848 -947 0
843 850 949 0
-843 -850 -949 0
843 851 952 0
-843 -851 -952 0
844 850 965 0
-844 -850 -965 0
844 851 968 0
-844 -851 -968 0
845 846 979 0
-845 -846 -979 0
845 850 980 0
-845 -850 -980 0
846 851 989 0
-846 -851 -989 0
847 848 998 0
-847 -848 -998 0
847 851 1000 0
-847 -851 -1000 0
849 850 1014 0
-849 -850 -1014 0
852 857 867 0
-852 -857 -867 0
852 859 869 0
-852 -859 -869 0
852 861 871 0
-852 -861 -871 0
853 859 938 0
-853 -859 -938 0
853 861 940 0
-853 -861 -940 0
854 859 956 0
-854 -859 -956 0
854 861 958 0
-854 -861 -958 0
854 862 961 0
-854 -862 -961 0
855 861 973 0
-855 -861 -973 0
855 862 976 0
-855 -862 -976 0
856 857 986 0
-856 -857 -986 0
856 861 987 0
-856 -861 -987 0
857 862 995 0
-857 -862 -995 0
858 859 1003 0
-858 -859 -1003 0
858 862 1005 0
-858 -862 -1005 0
860 861 1017 0
-860 -861 -1017 0
863 868 878 0
-863 -868 -878 0
863 870 880 0
-863 -870 -880 0
863 872 882 0
-863 -872 -882 0
864 870 948 0
-864 -870 -948 0
864 872 950 0
-864 -872 -950 0
865 870 964 0
-865 -870 -964 0
865 872 966 0
-865 -872 -966 0
865 873 969 0
-865 -873 -969 0
866 872 981 0
-866 -872 -981 0
866 873 984 0
-866 -873 -984 0
867 868 992 0
-867 -868 -992 0
867 872 993 0
-867 -872 -993 0
868 873 1001 0
-868 -873 -1001 0
869 870 1007 0
-869 -870 -1007 0
869 873 1009 0
-869 -873 -1009 0
871 872 1019 0
-871 -872 -1019 0
874 879 889 0
-874 -879 -889 0
874 881 891 0
-874 -881 -891 0
874 883 893 0
-874 -883 -893 0
875 881 957 0
-875 -881 -957 0
875 883 959 0
-875 -883 -959 0
876 881 972 0
-876 -881 -972 0
876 883 974 0
-876 -883 -974 0
876 884 977 0
-876 -884 -977 0
877 883 988 0
-877 -883 -988 0
877 884 991 0
-877 -884 -991 0
878 879 998 0
-878 -879 -998 0
878 883 999 0
-878 -883 -999 0
879 884 1006 0
-879 -884 -1006 0
880 881 1011 0
-880 -881 -1011 0
880 884 1013 0
-880 -884 -1013 0
882 883 1021 0
-882 -883 -1021 0
885 890 900 0
-885 -890 -900 0
885 892 902 0
-885 -892 -902 0
885 894 904 0
-885 -894 -904 0
886 892 965 0
-886 -892 -965 0
886 894 967 0
-886 -894 -967 0
887 892 980 0
-887 -892 -980 0
887 894 982 0
-887 -894 -982 0
887 895 985 0
-887 -895 -985 0
888 894 994 0
-888 -894 -994 0
888 895 997 0
-888 -895 -997 0
889 890 1003 0
-889 -890 -1003 0
889 894 1004 0
-889 -894 -1004 0
890 895 1010 0
-890 -895 -1010 0
891 892 1014 0
-891 -892 -1014 0
891 895 1016 0
-891 -895 -1016 0
893 894 1022 0
-893 -894 -1022 0
896 901 910 0
-896 -901 -910 0
896 903 912 0
-896 -903 -912 0
896 905 914 0
-896 -905 -914 0
897 903 973 0
-897 -903 -973 0
897 905 975 0
-897 -905 -975 0
898 903 987 0
-898 -903 -987 0
898 905 989 0
-898 -905 -989 0
899 905 1000 0
-899 -905 -1000 0
900 901 1007 0
-900 -901 -1007 0
900 905 1008 0
-900 -905 -1008 0
902 903 1017 0
-902 -903 -1017 0
904 905 1023 0
-904 -905 -1023 0
906 911 920 0
-906 -911 -920 0
906 913 922 0
-906 -913 -922 0
906 915 924 0
-906 -915 -924 0
907 913 981 0
-907 -913 -981 0
907 915 983 0
-907 -915 -983 0
908 913 993 0
-908 -913 -993 0
908 915 995 0
-908 -915 -995 0
909 915 1005 0
-909 -915 -1005 0
910 911 1011 0
-910 -911 -1011 0
910 915 1012 0
-910 -915 -1012 0
912 913 1019 0
-912 -913 -1019 0
914 915 1024 0
-914 -915 -1024 0
916 921 930 0
-916 -921 -930 0
916 923 932 0
-916 -923 -932 0
916 925 934 0
-916 -925 -934 0
917 923 988 0
-917 -923 -988 0
917 925 990 0
-917 -925 -990 0
918 923 999 0
-918 -923 -999 0
918 925 1001 0
-918 -925 -1001 0
919 925 1009 0
-919 -925 -1009 0
920 921 1014 0
-920 -921 -1014 0
920 925 1015 0
-920 -925 -1015 0
922 923 1021 0
-922 -923 -1021 0
924 925 1025 0
-924 -925 -1025 0
926 931 940 0
-926 -931 -940 0
926 933 942 0
-926 -933 -942 0
926 935 944 0
-926 -935 -944 0
927 933 994 0
-927 -933 -994 0
927 935 996 0
-927 -935 -996 0
928 933 1004 0
-928 -933 -1004 0
928 935 1006 0
-928 -935 -1006 0
929 935 1013 0
-929 -935 -1013 0
930 931 1017 0
-930 -931 -1017 0
930 935 1018 0
-930 -935 -1018 0
932 933 1022 0
-932 -933 -1022 0
934 935 1026 0
-934 -935 -1026 0
936 941 950 0
-936 -941 -950 0
936 943 952 0
-936 -943 -952 0
936 945 954 0
-936 -945 -954 0
937 943 1000 0
-937 -943 -1000 0
937 945 1002 0
-937 -945 -1002 0
938 943 1008 0
-938 -943 -1008 0
938 945 1010 0
-938 -945 -1010 0
939 945 1016 0
-939 -945 -1016 0
940 941 1019 0
-940 -941 -1019 0
940 945 1020 0
-940 -945 -1020 0
942 943 1023 0
-942 -943 -1023 0
944 945 1027 0
-944 -945 -1027 0
946 951 959 0
-946 -951 -959 0
946 953 961 0
-946 -953 -961 0
947 953 1005 0
-947 -953 -1005 0
948 953 1012 0
-948 -953 -1012 0
950 951 1021 0
-950 -951 -1021 0
952 953 1024 0
-952 -953 -1024 0
955 960 967 0
-955 -960 -967 0
955 962 969 0
-955 -962 -969 0
956 962 1009 0
-956 -962 -1009 0
957 962 1015 0
-957 -962 -1015 0
959 960 1022 0
-959 -960 -1022 0
961 962 1025 0
-961 -962 -1025 0
963 968 975 0
-963 -968 -975 0
963 970 977 0
-963 -970 -977 0
964 970 1013 0
-964 -970 -1013 0
965 970 1018 0
-965 -970 -1018 0
967 968 1023 0
-967 -968 -1023 0
969 970 1026 0
-969 -970 -1026 0
971 976 983 0
-971 -976 -983 0
971 978 985 0
-971 -978 -985 0
972 978 1016 0
-972 -978 -1016 0
973 978 1020 0
-973 -978 -1020 0
975 976 1024 0
-975 -976 -1024 0
977 978 1027 0
-977 -978 -1027 0
979 984 990 0
-979 -984 -990 0
983 984 1025 0
-983 -984 -1025 0
986 991 996 0
-986 -991 -996 0
990 991 1026 0
-990 -991 -1026 0
992 997 1002 0
-992 -997 -1002 0
996 997 1027 0
-996 -997 -1027 0
