0 26
0 29
0 30
0 31
0 33
0 34
0 36
0 37
0 38
0 41
0 48
0 50
0 51
0 52
0 54
0 56
0 57
0 58
0 59
0 62
2 7
2 8
2 9
2 10
2 11
2 12
2 16
2 20
2 21
2 23
2 26
2 30
2 36
2 37
2 41
2 42
2 50
2 52
2 54
2 56
2 59
3 7
3 8
3 9
3 10
3 11
3 13
3 16
3 21
3 25
3 30
3 31
3 34
3 37
3 41
3 42
3 43
3 48
3 50
3 54
3 57
3 59
4 7
4 8
4 9
4 10
4 11
4 12
4 13
4 16
4 20
4 21
4 23
4 25
4 29
4 33
4 38
4 42
4 43
4 51
4 58
4 62
5 7
5 8
5 9
5 10
5 11
5 16
5 21
5 26
5 29
5 31
5 33
5 34
5 36
5 38
5 42
5 48
5 51
5 52
5 56
5 57
5 58
5 62
7 11
7 12
7 16
7 21
7 30
7 31
7 33
7 36
7 38
7 41
7 42
7 43
7 51
7 52
7 54
7 57
7 59
7 62
8 11
8 13
8 16
8 20
8 21
8 23
8 25
8 29
8 31
8 36
8 37
8 42
8 50
8 52
8 57
8 58
9 11
9 12
9 13
9 16
9 21
9 23
9 26
9 33
9 34
9 41
9 42
9 43
9 48
9 54
9 56
9 62
10 11
10 16
10 20
10 21
10 25
10 26
10 29
10 30
10 34
10 37
10 38
10 42
10 48
10 50
10 51
10 56
10 58
10 59
11 23
11 25
11 26
11 31
11 37
11 38
11 41
11 43
11 48
11 52
11 58
11 59
11 62
12 20
12 21
12 23
12 29
12 31
12 34
12 37
12 41
12 42
12 43
12 48
12 50
12 51
12 56
12 57
12 58
12 62
13 20
13 21
13 23
13 25
13 26
13 29
13 30
13 34
13 36
13 38
13 42
13 43
13 51
13 52
13 54
13 56
13 59
16 23
16 25
16 29
16 30
16 33
16 34
16 36
16 43
16 50
16 51
16 54
16 56
16 57
20 21
20 23
20 25
20 26
20 29
20 31
20 33
20 34
20 41
20 42
20 48
20 50
20 54
20 57
20 59
20 62
21 26
21 31
21 34
21 36
21 50
21 51
21 54
21 58
21 59
21 62
23 30
23 31
23 33
23 34
23 37
23 38
23 43
23 48
23 51
23 52
23 57
23 59
25 26
25 33
25 36
25 38
25 41
25 43
25 50
25 52
25 54
25 56
25 57
25 58
25 62
26 29
26 30
26 31
26 33
26 36
26 43
26 48
26 50
26 52
26 56
26 59
26 62
29 30
29 31
29 33
29 34
29 37
29 42
29 43
29 50
29 51
29 56
29 58
30 31
30 33
30 36
30 37
30 38
30 42
30 48
30 51
30 54
30 59
31 33
31 34
31 36
31 41
31 43
31 48
31 57
31 58
31 59
33 38
33 41
33 42
33 43
33 52
33 54
33 57
33 62
34 36
34 37
34 38
34 41
34 48
34 51
34 54
34 56
34 57
36 37
36 38
36 41
36 43
36 52
36 54
36 56
36 58
37 38
37 41
37 42
37 43
37 48
37 50
37 52
37 58
38 41
38 42
38 51
38 52
38 57
38 58
38 59
41 42
41 43
41 54
41 56
41 59
41 62
42 48
42 52
42 56
42 57
43 50
43 52
43 56
43 58
43 59
48 50
48 51
48 52
48 54
48 57
48 62
50 51
50 52
50 54
50 57
50 58
50 59
51 52
51 54
51 56
51 59
51 62
52 54
52 56
52 57
54 62
56 57
56 58
56 59
56 62
57 58
57 59
57 62
58 59
58 62
59 62
