p cnf 411 1796
1 7 288 0
-1 -7 -288 0
1 11 290 0
-1 -11 -290 0
1 12 291 0
-1 -12 -291 0
1 14 292 0
-1 -14 -292 0
1 16 293 0
-1 -16 -293 0
1 19 294 0
-1 -19 -294 0
1 20 295 0
-1 -20 -295 0
2 6 299 0
-2 -6 -299 0
2 8 300 0
-2 -8 -300 0
2 12 303 0
-2 -12 -303 0
2 13 304 0
-2 -13 -304 0
2 16 305 0
-2 -16 -305 0
2 18 306 0
-2 -18 -306 0
3 7 309 0
-3 -7 -309 0
3 8 310 0
-3 -8 -310 0
3 9 311 0
-3 -9 -311 0
3 11 313 0
-3 -11 -313 0
3 13 314 0
-3 -13 -314 0
3 15 315 0
-3 -15 -315 0
3 19 316 0
-3 -19 -316 0
4 6 318 0
-4 -6 -318 0
4 7 319 0
-4 -7 -319 0
4 10 320 0
-4 -10 -320 0
4 11 322 0
-4 -11 -322 0
4 17 323 0
-4 -17 -323 0
4 18 324 0
-4 -18 -324 0
4 19 325 0
-4 -19 -325 0
5 9 326 0
-5 -9 -326 0
5 10 327 0
-5 -10 -327 0
5 14 330 0
-5 -14 -330 0
5 15 331 0
-5 -15 -331 0
5 17 332 0
-5 -17 -332 0
5 20 333 0
-5 -20 -333 0
6 11 338 0
-6 -11 -338 0
6 13 339 0
-6 -13 -339 0
6 15 340 0
-6 -15 -340 0
6 16 341 0
-6 -16 -341 0
6 17 342 0
-6 -17 -342 0
7 14 347 0
-7 -14 -347 0
7 15 348 0
-7 -15 -348 0
7 16 349 0
-7 -16 -349 0
7 18 350 0
-7 -18 -350 0
8 11 355 0
-8 -11 -355 0
8 12 356 0
-8 -12 -356 0
8 14 357 0
-8 -14 -357 0
8 18 358 0
-8 -18 -358 0
9 13 361 0
-9 -13 -361 0
9 14 362 0
-9 -14 -362 0
9 17 363 0
-9 -17 -363 0
9 18 364 0
-9 -18 -364 0
9 19 365 0
-9 -19 -365 0
10 15 368 0
-10 -15 -368 0
10 16 369 0
-10 -16 -369 0
10 19 370 0
-10 -19 -370 0
10 20 371 0
-10 -20 -371 0
11 17 385 0
-11 -17 -385 0
11 20 386 0
-11 -20 -386 0
12 17 390 0
-12 -17 -390 0
12 18 391 0
-12 -18 -391 0
12 19 392 0
-12 -19 -392 0
13 16 395 0
-13 -16 -395 0
13 19 396 0
-13 -19 -396 0
13 20 397 0
-13 -20 -397 0
14 16 399 0
-14 -16 -399 0
14 17 400 0
-14 -17 -400 0
15 20 401 0
-15 -20 -401 0
21 25 105 0
-21 -25 -105 0
21 26 106 0
-21 -26 -106 0
21 29 108 0
-21 -29 -108 0
21 35 114 0
-21 -35 -114 0
21 36 115 0
-21 -36 -115 0
21 38 118 0
-21 -38 -118 0
21 41 121 0
-21 -41 -121 0
22 27 125 0
-22 -27 -125 0
22 28 126 0
-22 -28 -126 0
22 29 127 0
-22 -29 -127 0
22 33 132 0
-22 -33 -132 0
22 36 134 0
-22 -36 -134 0
22 37 135 0
-22 -37 -135 0
23 25 139 0
-23 -25 -139 0
23 27 142 0
-23 -27 -142 0
23 29 143 0
-23 -29 -143 0
23 30 144 0
-23 -30 -144 0
23 31 145 0
-23 -31 -145 0
23 39 152 0
-23 -39 -152 0
24 25 155 0
-24 -25 -155 0
24 27 156 0
-24 -27 -156 0
24 32 162 0
-24 -32 -162 0
24 34 164 0
-24 -34 -164 0
24 36 166 0
-24 -36 -166 0
24 40 170 0
-24 -40 -170 0
25 31 175 0
-25 -31 -175 0
25 35 179 0
-25 -35 -179 0
25 41 184 0
-25 -41 -184 0
26 28 186 0
-26 -28 -186 0
26 29 187 0
-26 -29 -187 0
26 30 188 0
-26 -30 -188 0
26 34 192 0
-26 -34 -192 0
26 37 197 0
-26 -37 -197 0
27 30 220 0
-27 -30 -220 0
27 37 228 0
-27 -37 -228 0
27 40 231 0
-27 -40 -231 0
28 30 234 0
-28 -30 -234 0
28 35 241 0
-28 -35 -241 0
28 36 242 0
-28 -36 -242 0
28 39 245 0
-28 -39 -245 0
29 33 252 0
-29 -33 -252 0
29 39 255 0
-29 -39 -255 0
30 32 259 0
-30 -32 -259 0
30 41 270 0
-30 -41 -270 0
31 32 285 0
-31 -32 -285 0
31 33 288 0
-31 -33 -288 0
31 38 292 0
-31 -38 -292 0
31 40 293 0
-31 -40 -293 0
32 34 310 0
-32 -34 -310 0
32 36 312 0
-32 -36 -312 0
32 41 316 0
-32 -41 -316 0
33 34 343 0
-33 -34 -343 0
33 35 345 0
-33 -35 -345 0
33 38 347 0
-33 -38 -347 0
33 40 349 0
-33 -40 -349 0
34 35 352 0
-34 -35 -352 0
34 36 353 0
-34 -36 -353 0
34 37 356 0
-34 -37 -356 0
35 39 368 0
-35 -39 -368 0
35 41 370 0
-35 -41 -370 0
36 38 373 0
-36 -38 -373 0
37 38 388 0
-37 -38 -388 0
37 39 389 0
-37 -39 -389 0
38 39 398 0
-38 -39 -398 0
38 40 399 0
-38 -40 -399 0
40 41 404 0
-40 -41 -404 0
42 48 107 0
-42 -48 -107 0
42 49 108 0
-42 -49 -108 0
42 51 109 0
-42 -51 -109 0
42 56 115 0
-42 -56 -115 0
42 60 119 0
-42 -60 -119 0
42 61 120 0
-42 -61 -120 0
43 46 123 0
-43 -46 -123 0
43 47 124 0
-43 -47 -124 0
43 49 127 0
-43 -49 -127 0
43 52 131 0
-43 -52 -131 0
43 54 133 0
-43 -54 -133 0
43 56 134 0
-43 -56 -134 0
44 46 139 0
-44 -46 -139 0
44 48 142 0
-44 -48 -142 0
44 55 148 0
-44 -55 -148 0
44 56 149 0
-44 -56 -149 0
44 57 150 0
-44 -57 -150 0
44 58 151 0
-44 -58 -151 0
45 46 155 0
-45 -46 -155 0
45 48 156 0
-45 -48 -156 0
45 49 158 0
-45 -49 -158 0
45 50 159 0
-45 -50 -159 0
45 53 163 0
-45 -53 -163 0
45 59 168 0
-45 -59 -168 0
45 62 172 0
-45 -62 -172 0
46 50 174 0
-46 -50 -174 0
46 54 177 0
-46 -54 -177 0
46 58 181 0
-46 -58 -181 0
47 50 206 0
-47 -50 -206 0
47 51 209 0
-47 -51 -209 0
47 56 213 0
-47 -56 -213 0
47 57 214 0
-47 -57 -214 0
47 62 219 0
-47 -62 -219 0
48 51 223 0
-48 -51 -223 0
48 53 225 0
-48 -53 -225 0
48 57 227 0
-48 -57 -227 0
48 60 230 0
-48 -60 -230 0
49 52 250 0
-49 -52 -250 0
49 59 253 0
-49 -59 -253 0
49 62 257 0
-49 -62 -257 0
50 55 275 0
-50 -55 -275 0
50 57 276 0
-50 -57 -276 0
50 60 279 0
-50 -60 -279 0
51 52 307 0
-51 -52 -307 0
51 60 315 0
-51 -60 -315 0
51 62 316 0
-51 -62 -316 0
52 53 318 0
-52 -53 -318 0
52 58 322 0
-52 -58 -322 0
52 61 323 0
-52 -61 -323 0
53 54 335 0
-53 -54 -335 0
53 55 337 0
-53 -55 -337 0
53 58 338 0
-53 -58 -338 0
53 61 342 0
-53 -61 -342 0
54 55 352 0
-54 -55 -352 0
54 57 354 0
-54 -57 -354 0
54 59 356 0
-54 -59 -356 0
55 56 366 0
-55 -56 -366 0
55 60 368 0
-55 -60 -368 0
56 61 375 0
-56 -61 -375 0
57 59 376 0
-57 -59 -376 0
58 59 381 0
-58 -59 -381 0
58 60 384 0
-58 -60 -384 0
58 61 385 0
-58 -61 -385 0
59 60 389 0
-59 -60 -389 0
59 62 392 0
-59 -62 -392 0
61 62 407 0
-61 -62 -407 0
63 67 105 0
-63 -67 -105 0
63 70 107 0
-63 -70 -107 0
63 76 111 0
-63 -76 -111 0
63 77 113 0
-63 -77 -113 0
63 78 115 0
-63 -78 -115 0
63 79 116 0
-63 -79 -116 0
64 67 123 0
-64 -67 -123 0
64 70 125 0
-64 -70 -125 0
64 72 127 0
-64 -72 -127 0
64 73 128 0
-64 -73 -128 0
64 74 129 0
-64 -74 -129 0
64 81 138 0
-64 -81 -138 0
65 67 139 0
-65 -67 -139 0
65 68 140 0
-65 -68 -140 0
65 69 141 0
-65 -69 -141 0
65 72 143 0
-65 -72 -143 0
65 78 149 0
-65 -78 -149 0
65 82 154 0
-65 -82 -154 0
66 70 156 0
-66 -70 -156 0
66 71 157 0
-66 -71 -157 0
66 72 158 0
-66 -72 -158 0
66 75 161 0
-66 -75 -161 0
66 78 166 0
-66 -78 -166 0
66 80 169 0
-66 -80 -169 0
67 73 173 0
-67 -73 -173 0
67 79 180 0
-67 -79 -180 0
67 82 185 0
-67 -82 -185 0
68 71 186 0
-68 -71 -186 0
68 73 188 0
-68 -73 -188 0
68 75 189 0
-68 -75 -189 0
68 78 194 0
-68 -78 -194 0
68 79 195 0
-68 -79 -195 0
68 81 201 0
-68 -81 -201 0
69 72 204 0
-69 -72 -204 0
69 73 205 0
-69 -73 -205 0
69 74 206 0
-69 -74 -206 0
69 77 212 0
-69 -77 -212 0
69 79 214 0
-69 -79 -214 0
69 80 215 0
-69 -80 -215 0
70 74 221 0
-70 -74 -221 0
70 75 222 0
-70 -75 -222 0
70 80 229 0
-70 -80 -229 0
71 72 233 0
-71 -72 -233 0
71 73 234 0
-71 -73 -234 0
71 74 235 0
-71 -74 -235 0
71 76 239 0
-71 -76 -239 0
71 82 248 0
-71 -82 -248 0
72 81 256 0
-72 -81 -256 0
73 77 264 0
-73 -77 -264 0
73 80 267 0
-73 -80 -267 0
74 76 272 0
-74 -76 -272 0
74 79 276 0
-74 -79 -276 0
74 82 283 0
-74 -82 -283 0
75 76 298 0
-75 -76 -298 0
75 79 302 0
-75 -79 -302 0
75 80 304 0
-75 -80 -304 0
75 81 306 0
-75 -81 -306 0
76 77 326 0
-76 -77 -326 0
76 78 328 0
-76 -78 -328 0
76 82 333 0
-76 -82 -333 0
77 78 360 0
-77 -78 -360 0
77 80 361 0
-77 -80 -361 0
79 81 379 0
-79 -81 -379 0
81 82 410 0
-81 -82 -410 0
83 87 105 0
-83 -87 -105 0
83 88 107 0
-83 -88 -107 0
83 89 108 0
-83 -89 -108 0
83 92 110 0
-83 -92 -110 0
83 95 112 0
-83 -95 -112 0
83 99 117 0
-83 -99 -117 0
83 104 122 0
-83 -104 -122 0
84 87 123 0
-84 -87 -123 0
84 88 125 0
-84 -88 -125 0
84 91 130 0
-84 -91 -130 0
84 97 134 0
-84 -97 -134 0
84 100 136 0
-84 -100 -136 0
84 102 137 0
-84 -102 -137 0
85 88 142 0
-85 -88 -142 0
85 89 143 0
-85 -89 -143 0
85 93 146 0
-85 -93 -146 0
85 94 147 0
-85 -94 -147 0
85 97 149 0
-85 -97 -149 0
85 101 153 0
-85 -101 -153 0
86 87 155 0
-86 -87 -155 0
86 89 158 0
-86 -89 -158 0
86 90 160 0
-86 -90 -160 0
86 96 165 0
-86 -96 -165 0
86 97 166 0
-86 -97 -166 0
86 98 167 0
-86 -98 -167 0
86 103 171 0
-86 -103 -171 0
87 92 176 0
-87 -92 -176 0
87 96 178 0
-87 -96 -178 0
87 100 182 0
-87 -100 -182 0
87 103 183 0
-87 -103 -183 0
88 93 224 0
-88 -93 -224 0
88 95 226 0
-88 -95 -226 0
88 102 232 0
-88 -102 -232 0
89 90 249 0
-89 -90 -249 0
89 94 251 0
-89 -94 -251 0
89 99 254 0
-89 -99 -254 0
89 104 258 0
-89 -104 -258 0
90 91 284 0
-90 -91 -284 0
90 92 286 0
-90 -92 -286 0
90 93 287 0
-90 -93 -287 0
90 95 288 0
-90 -95 -288 0
90 100 292 0
-90 -100 -292 0
90 101 293 0
-90 -101 -293 0
91 92 297 0
-91 -92 -297 0
91 93 298 0
-91 -93 -298 0
91 97 301 0
-91 -97 -301 0
91 103 306 0
-91 -103 -306 0
92 93 317 0
-92 -93 -317 0
92 94 318 0
-92 -94 -318 0
92 98 322 0
-92 -98 -322 0
92 102 323 0
-92 -102 -323 0
93 104 333 0
-93 -104 -333 0
94 95 334 0
-94 -95 -334 0
94 96 336 0
-94 -96 -336 0
94 98 338 0
-94 -98 -338 0
94 102 342 0
-94 -102 -342 0
95 96 344 0
-95 -96 -344 0
95 100 347 0
-95 -100 -347 0
95 101 349 0
-95 -101 -349 0
96 99 361 0
-96 -99 -361 0
96 103 364 0
-96 -103 -364 0
97 98 372 0
-97 -98 -372 0
97 101 374 0
-97 -101 -374 0
98 99 382 0
-98 -99 -382 0
98 100 383 0
-98 -100 -383 0
98 102 385 0
-98 -102 -385 0
99 100 393 0
-99 -100 -393 0
99 104 397 0
-99 -104 -397 0
100 101 399 0
-100 -101 -399 0
101 102 402 0
-101 -102 -402 0
101 103 403 0
-101 -103 -403 0
101 104 405 0
-101 -104 -405 0
102 103 406 0
-102 -103 -406 0
102 104 408 0
-102 -104 -408 0
103 104 410 0
-103 -104 -410 0
105 113 178 0
-105 -113 -178 0
105 118 182 0
-105 -118 -182 0
105 122 185 0
-105 -122 -185 0
106 110 190 0
-106 -110 -190 0
106 114 193 0
-106 -114 -193 0
106 115 194 0
-106 -115 -194 0
106 116 195 0
-106 -116 -195 0
106 120 200 0
-106 -120 -200 0
107 111 224 0
-107 -111 -224 0
107 116 227 0
-107 -116 -227 0
107 117 229 0
-107 -117 -229 0
107 120 232 0
-107 -120 -232 0
108 110 250 0
-108 -110 -250 0
108 112 252 0
-108 -112 -252 0
108 119 255 0
-108 -119 -255 0
108 121 257 0
-108 -121 -257 0
109 110 307 0
-109 -110 -307 0
109 111 308 0
-109 -111 -308 0
109 113 311 0
-109 -113 -311 0
109 115 312 0
-109 -115 -312 0
109 117 314 0
-109 -117 -314 0
109 121 316 0
-109 -121 -316 0
110 111 317 0
-110 -111 -317 0
110 112 319 0
-110 -112 -319 0
110 120 323 0
-110 -120 -323 0
111 114 327 0
-111 -114 -327 0
111 116 329 0
-111 -116 -329 0
111 119 331 0
-111 -119 -331 0
111 122 333 0
-111 -122 -333 0
112 113 344 0
-112 -113 -344 0
112 114 345 0
-112 -114 -345 0
112 116 346 0
-112 -116 -346 0
112 118 347 0
-112 -118 -347 0
113 114 359 0
-113 -114 -359 0
113 117 361 0
-113 -117 -361 0
113 121 365 0
-113 -121 -365 0
114 115 366 0
-114 -115 -366 0
114 119 368 0
-114 -119 -368 0
114 122 371 0
-114 -122 -371 0
116 118 377 0
-116 -118 -377 0
117 118 393 0
-117 -118 -393 0
117 119 394 0
-117 -119 -394 0
117 121 396 0
-117 -121 -396 0
118 119 398 0
-118 -119 -398 0
119 122 401 0
-119 -122 -401 0
120 121 407 0
-120 -121 -407 0
120 122 408 0
-120 -122 -408 0
121 122 411 0
-121 -122 -411 0
123 129 174 0
-123 -129 -174 0
123 131 176 0
-123 -131 -176 0
123 138 183 0
-123 -138 -183 0
124 127 204 0
-124 -127 -204 0
124 128 205 0
-124 -128 -205 0
124 129 206 0
-124 -129 -206 0
124 132 211 0
-124 -132 -211 0
124 136 216 0
-124 -136 -216 0
125 128 220 0
-125 -128 -220 0
125 130 222 0
-125 -130 -222 0
125 132 226 0
-125 -132 -226 0
126 127 233 0
-126 -127 -233 0
126 128 234 0
-126 -128 -234 0
126 129 235 0
-126 -129 -235 0
126 131 238 0
-126 -131 -238 0
126 135 244 0
-126 -135 -244 0
126 137 246 0
-126 -137 -246 0
127 135 253 0
-127 -135 -253 0
128 131 260 0
-128 -131 -260 0
128 137 269 0
-128 -137 -269 0
129 132 273 0
-129 -132 -273 0
129 136 278 0
-129 -136 -278 0
129 138 282 0
-129 -138 -282 0
130 131 297 0
-130 -131 -297 0
130 133 300 0
-130 -133 -300 0
130 135 303 0
-130 -135 -303 0
130 138 306 0
-130 -138 -306 0
131 137 323 0
-131 -137 -323 0
132 133 343 0
-132 -133 -343 0
132 136 347 0
-132 -136 -347 0
133 134 353 0
-133 -134 -353 0
133 135 356 0
-133 -135 -356 0
133 138 358 0
-133 -138 -358 0
134 136 373 0
-134 -136 -373 0
134 137 375 0
-134 -137 -375 0
135 136 388 0
-135 -136 -388 0
135 138 391 0
-135 -138 -391 0
136 137 400 0
-136 -137 -400 0
137 138 406 0
-137 -138 -406 0
139 144 173 0
-139 -144 -173 0
139 148 179 0
-139 -148 -179 0
139 150 180 0
-139 -150 -180 0
140 143 187 0
-140 -143 -187 0
140 144 188 0
-140 -144 -188 0
140 147 191 0
-140 -147 -191 0
140 150 195 0
-140 -150 -195 0
140 151 196 0
-140 -151 -196 0
140 154 202 0
-140 -154 -202 0
141 144 205 0
-141 -144 -205 0
141 145 207 0
-141 -145 -207 0
141 149 213 0
-141 -149 -213 0
141 150 214 0
-141 -150 -214 0
141 153 218 0
-141 -153 -218 0
142 147 225 0
-142 -147 -225 0
142 152 230 0
-142 -152 -230 0
142 153 231 0
-142 -153 -231 0
143 145 249 0
-143 -145 -249 0
143 154 258 0
-143 -154 -258 0
144 147 262 0
-144 -147 -262 0
144 151 266 0
-144 -151 -266 0
145 146 287 0
-145 -146 -287 0
145 150 289 0
-145 -150 -289 0
145 153 293 0
-145 -153 -293 0
146 148 327 0
-146 -148 -327 0
146 149 328 0
-146 -149 -328 0
146 152 331 0
-146 -152 -331 0
146 154 333 0
-146 -154 -333 0
147 148 337 0
-147 -148 -337 0
147 151 338 0
-147 -151 -338 0
147 153 341 0
-147 -153 -341 0
148 150 367 0
-148 -150 -367 0
148 152 368 0
-148 -152 -368 0
148 154 371 0
-148 -154 -371 0
149 151 372 0
-149 -151 -372 0
150 153 378 0
-150 -153 -378 0
151 152 384 0
-151 -152 -384 0
152 154 401 0
-152 -154 -401 0
153 154 405 0
-153 -154 -405 0
155 160 175 0
-155 -160 -175 0
155 164 177 0
-155 -164 -177 0
155 167 181 0
-155 -167 -181 0
155 172 184 0
-155 -172 -184 0
156 159 221 0
-156 -159 -221 0
156 162 223 0
-156 -162 -223 0
156 168 228 0
-156 -168 -228 0
157 159 235 0
-157 -159 -235 0
157 161 237 0
-157 -161 -237 0
157 163 240 0
-157 -163 -240 0
157 166 242 0
-157 -166 -242 0
157 167 243 0
-157 -167 -243 0
158 163 251 0
-158 -163 -251 0
158 169 254 0
-158 -169 -254 0
158 171 256 0
-158 -171 -256 0
159 160 271 0
-159 -160 -271 0
159 168 277 0
-159 -168 -277 0
159 170 280 0
-159 -170 -280 0
160 161 284 0
-160 -161 -284 0
160 162 285 0
-160 -162 -285 0
160 167 290 0
-160 -167 -290 0
160 170 293 0
-160 -170 -293 0
161 162 296 0
-161 -162 -296 0
161 164 300 0
-161 -164 -300 0
161 166 301 0
-161 -166 -301 0
161 168 303 0
-161 -168 -303 0
161 171 306 0
-161 -171 -306 0
162 165 311 0
-162 -165 -311 0
162 169 314 0
-162 -169 -314 0
162 172 316 0
-162 -172 -316 0
163 164 335 0
-163 -164 -335 0
163 165 336 0
-163 -165 -336 0
163 167 338 0
-163 -167 -338 0
164 165 351 0
-164 -165 -351 0
164 168 356 0
-164 -168 -356 0
164 171 358 0
-164 -171 -358 0
165 166 360 0
-165 -166 -360 0
165 169 361 0
-165 -169 -361 0
165 172 365 0
-165 -172 -365 0
166 170 374 0
-166 -170 -374 0
167 168 381 0
-167 -168 -381 0
167 169 382 0
-167 -169 -382 0
168 169 387 0
-168 -169 -387 0
168 171 391 0
-168 -171 -391 0
169 172 396 0
-169 -172 -396 0
170 171 403 0
-170 -171 -403 0
170 172 404 0
-170 -172 -404 0
171 172 409 0
-171 -172 -409 0
173 176 260 0
-173 -176 -260 0
173 178 264 0
-173 -178 -264 0
173 180 265 0
-173 -180 -265 0
173 181 266 0
-173 -181 -266 0
173 184 270 0
-173 -184 -270 0
174 175 271 0
-174 -175 -271 0
174 179 275 0
-174 -179 -275 0
174 180 276 0
-174 -180 -276 0
174 182 278 0
-174 -182 -278 0
174 185 283 0
-174 -185 -283 0
175 176 286 0
-175 -176 -286 0
175 180 289 0
-175 -180 -289 0
175 182 292 0
-175 -182 -292 0
175 184 294 0
-175 -184 -294 0
176 181 322 0
-176 -181 -322 0
176 183 324 0
-176 -183 -324 0
177 178 351 0
-177 -178 -351 0
177 179 352 0
-177 -179 -352 0
177 180 354 0
-177 -180 -354 0
177 181 355 0
-177 -181 -355 0
177 183 358 0
-177 -183 -358 0
178 179 359 0
-178 -179 -359 0
178 182 362 0
-178 -182 -362 0
178 184 365 0
-178 -184 -365 0
179 185 371 0
-179 -185 -371 0
180 182 377 0
-180 -182 -377 0
180 183 379 0
-180 -183 -379 0
181 182 383 0
-181 -182 -383 0
183 184 409 0
-183 -184 -409 0
183 185 410 0
-183 -185 -410 0
184 185 411 0
-184 -185 -411 0
186 187 233 0
-186 -187 -233 0
186 189 237 0
-186 -189 -237 0
186 193 241 0
-186 -193 -241 0
186 194 242 0
-186 -194 -242 0
186 197 244 0
-186 -197 -244 0
186 202 248 0
-186 -202 -248 0
187 190 250 0
-187 -190 -250 0
187 191 251 0
-187 -191 -251 0
187 197 253 0
-187 -197 -253 0
187 201 256 0
-187 -201 -256 0
188 192 263 0
-188 -192 -263 0
188 195 265 0
-188 -195 -265 0
188 198 267 0
-188 -198 -267 0
189 190 297 0
-189 -190 -297 0
189 191 299 0
-189 -191 -299 0
189 194 301 0
-189 -194 -301 0
189 198 304 0
-189 -198 -304 0
189 199 305 0
-189 -199 -305 0
190 193 320 0
-190 -193 -320 0
190 195 321 0
-190 -195 -321 0
190 201 324 0
-190 -201 -324 0
191 192 335 0
-191 -192 -335 0
191 193 337 0
-191 -193 -337 0
191 198 339 0
-191 -198 -339 0
191 199 341 0
-191 -199 -341 0
192 193 352 0
-192 -193 -352 0
192 194 353 0
-192 -194 -353 0
192 196 355 0
-192 -196 -355 0
193 195 367 0
-193 -195 -367 0
193 202 371 0
-193 -202 -371 0
194 196 372 0
-194 -196 -372 0
194 200 375 0
-194 -200 -375 0
195 199 378 0
-195 -199 -378 0
196 197 381 0
-196 -197 -381 0
196 198 382 0
-196 -198 -382 0
196 202 386 0
-196 -202 -386 0
197 198 387 0
-197 -198 -387 0
197 200 390 0
-197 -200 -390 0
198 199 395 0
-198 -199 -395 0
199 200 402 0
-199 -200 -402 0
199 201 403 0
-199 -201 -403 0
199 202 405 0
-199 -202 -405 0
200 201 406 0
-200 -201 -406 0
200 202 408 0
-200 -202 -408 0
201 202 410 0
-201 -202 -410 0
203 204 233 0
-203 -204 -233 0
203 205 234 0
-203 -205 -234 0
203 206 235 0
-203 -206 -235 0
203 207 236 0
-203 -207 -236 0
203 210 240 0
-203 -210 -240 0
203 217 245 0
-203 -217 -245 0
203 219 247 0
-203 -219 -247 0
204 207 249 0
-204 -207 -249 0
204 211 252 0
-204 -211 -252 0
204 215 254 0
-204 -215 -254 0
204 219 257 0
-204 -219 -257 0
205 210 262 0
-205 -210 -262 0
205 214 265 0
-205 -214 -265 0
205 216 268 0
-205 -216 -268 0
206 212 274 0
-206 -212 -274 0
206 217 279 0
-206 -217 -279 0
207 208 284 0
-207 -208 -284 0
207 209 285 0
-207 -209 -285 0
207 219 294 0
-207 -219 -294 0
208 209 296 0
-208 -209 -296 0
208 210 299 0
-208 -210 -299 0
208 214 302 0
-208 -214 -302 0
208 215 304 0
-208 -215 -304 0
208 218 305 0
-208 -218 -305 0
209 211 309 0
-209 -211 -309 0
209 213 312 0
-209 -213 -312 0
209 217 315 0
-209 -217 -315 0
210 211 334 0
-210 -211 -334 0
210 212 336 0
-210 -212 -336 0
210 215 339 0
-210 -215 -339 0
210 218 341 0
-210 -218 -341 0
211 212 344 0
-211 -212 -344 0
211 217 348 0
-211 -217 -348 0
212 213 360 0
-212 -213 -360 0
212 216 362 0
-212 -216 -362 0
213 216 373 0
-213 -216 -373 0
213 218 374 0
-213 -218 -374 0
214 219 380 0
-214 -219 -380 0
215 216 393 0
-215 -216 -393 0
215 217 394 0
-215 -217 -394 0
215 218 395 0
-215 -218 -395 0
216 217 398 0
-216 -217 -398 0
218 219 404 0
-218 -219 -404 0
220 223 259 0
-220 -223 -259 0
220 225 262 0
-220 -225 -262 0
220 229 267 0
-220 -229 -267 0
220 232 269 0
-220 -232 -269 0
221 224 272 0
-221 -224 -272 0
221 226 273 0
-221 -226 -273 0
221 227 276 0
-221 -227 -276 0
221 230 279 0
-221 -230 -279 0
221 231 280 0
-221 -231 -280 0
222 223 296 0
-222 -223 -296 0
222 224 298 0
-222 -224 -298 0
222 227 302 0
-222 -227 -302 0
222 228 303 0
-222 -228 -303 0
223 224 308 0
-223 -224 -308 0
223 229 314 0
-223 -229 -314 0
224 230 331 0
-224 -230 -331 0
224 232 332 0
-224 -232 -332 0
225 226 334 0
-225 -226 -334 0
225 230 340 0
-225 -230 -340 0
225 232 342 0
-225 -232 -342 0
226 227 346 0
-226 -227 -346 0
226 231 349 0
-226 -231 -349 0
227 228 376 0
-227 -228 -376 0
227 231 378 0
-227 -231 -378 0
228 229 387 0
-228 -229 -387 0
228 230 389 0
-228 -230 -389 0
229 230 394 0
-229 -230 -394 0
231 232 402 0
-231 -232 -402 0
233 238 250 0
-233 -238 -250 0
233 240 251 0
-233 -240 -251 0
233 245 255 0
-233 -245 -255 0
233 248 258 0
-233 -248 -258 0
234 239 261 0
-234 -239 -261 0
234 247 270 0
-234 -247 -270 0
235 236 271 0
-235 -236 -271 0
235 244 277 0
-235 -244 -277 0
235 246 281 0
-235 -246 -281 0
236 237 284 0
-236 -237 -284 0
236 238 286 0
-236 -238 -286 0
236 239 287 0
-236 -239 -287 0
236 243 290 0
-236 -243 -290 0
236 248 295 0
-236 -248 -295 0
237 238 297 0
-237 -238 -297 0
237 239 298 0
-237 -239 -298 0
237 240 299 0
-237 -240 -299 0
237 244 303 0
-237 -244 -303 0
238 239 317 0
-238 -239 -317 0
238 241 320 0
-238 -241 -320 0
238 247 325 0
-238 -247 -325 0
239 242 328 0
-239 -242 -328 0
239 246 332 0
-239 -246 -332 0
240 241 337 0
-240 -241 -337 0
240 245 340 0
-240 -245 -340 0
241 242 366 0
-241 -242 -366 0
241 247 370 0
-241 -247 -370 0
242 243 372 0
-242 -243 -372 0
242 246 375 0
-242 -246 -375 0
243 244 381 0
-243 -244 -381 0
243 245 384 0
-243 -245 -384 0
243 248 386 0
-243 -248 -386 0
244 245 389 0
-244 -245 -389 0
244 246 390 0
-244 -246 -390 0
246 247 407 0
-246 -247 -407 0
246 248 408 0
-246 -248 -408 0
247 248 411 0
-247 -248 -411 0
249 250 286 0
-249 -250 -286 0
249 252 288 0
-249 -252 -288 0
249 258 295 0
-249 -258 -295 0
250 251 318 0
-250 -251 -318 0
250 257 325 0
-250 -257 -325 0
251 252 334 0
-251 -252 -334 0
251 254 339 0
-251 -254 -339 0
252 255 348 0
-252 -255 -348 0
253 254 387 0
-253 -254 -387 0
253 255 389 0
-253 -255 -389 0
253 256 391 0
-253 -256 -391 0
254 255 394 0
-254 -255 -394 0
254 257 396 0
-254 -257 -396 0
255 258 401 0
-255 -258 -401 0
256 257 409 0
-256 -257 -409 0
256 258 410 0
-256 -258 -410 0
257 258 411 0
-257 -258 -411 0
259 260 307 0
-259 -260 -307 0
259 261 308 0
-259 -261 -308 0
259 263 310 0
-259 -263 -310 0
259 266 313 0
-259 -266 -313 0
260 261 317 0
-260 -261 -317 0
260 265 321 0
-260 -265 -321 0
260 270 325 0
-260 -270 -325 0
261 264 326 0
-261 -264 -326 0
261 268 330 0
-261 -268 -330 0
261 269 332 0
-261 -269 -332 0
262 263 335 0
-262 -263 -335 0
262 264 336 0
-262 -264 -336 0
262 267 339 0
-262 -267 -339 0
263 264 351 0
-263 -264 -351 0
263 265 354 0
-263 -265 -354 0
263 266 355 0
-263 -266 -355 0
264 268 362 0
-264 -268 -362 0
264 269 363 0
-264 -269 -363 0
265 268 377 0
-265 -268 -377 0
265 270 380 0
-265 -270 -380 0
266 267 382 0
-266 -267 -382 0
266 268 383 0
-266 -268 -383 0
267 268 393 0
-267 -268 -393 0
268 269 400 0
-268 -269 -400 0
269 270 407 0
-269 -270 -407 0
271 272 287 0
-271 -272 -287 0
271 277 291 0
-271 -277 -291 0
271 283 295 0
-271 -283 -295 0
272 274 326 0
-272 -274 -326 0
272 276 329 0
-272 -276 -329 0
272 278 330 0
-272 -278 -330 0
272 281 332 0
-272 -281 -332 0
273 274 344 0
-273 -274 -344 0
273 275 345 0
-273 -275 -345 0
273 279 348 0
-273 -279 -348 0
273 282 350 0
-273 -282 -350 0
274 275 359 0
-274 -275 -359 0
274 278 362 0
-274 -278 -362 0
274 281 363 0
-274 -281 -363 0
275 276 367 0
-275 -276 -367 0
275 280 369 0
-275 -280 -369 0
276 277 376 0
-276 -277 -376 0
276 282 379 0
-276 -282 -379 0
277 278 388 0
-277 -278 -388 0
277 279 389 0
-277 -279 -389 0
277 282 391 0
-277 -282 -391 0
278 279 398 0
-278 -279 -398 0
278 281 400 0
-278 -281 -400 0
280 281 402 0
-280 -281 -402 0
280 282 403 0
-280 -282 -403 0
280 283 405 0
-280 -283 -405 0
281 282 406 0
-281 -282 -406 0
281 283 408 0
-281 -283 -408 0
282 283 410 0
-282 -283 -410 0
284 289 302 0
-284 -289 -302 0
284 291 303 0
-284 -291 -303 0
284 293 305 0
-284 -293 -305 0
285 288 309 0
-285 -288 -309 0
285 290 313 0
-285 -290 -313 0
285 294 316 0
-285 -294 -316 0
286 288 319 0
-286 -288 -319 0
286 289 321 0
-286 -289 -321 0
286 290 322 0
-286 -290 -322 0
286 294 325 0
-286 -294 -325 0
287 289 329 0
-287 -289 -329 0
287 292 330 0
-287 -292 -330 0
287 295 333 0
-287 -295 -333 0
289 291 376 0
-289 -291 -376 0
289 294 380 0
-289 -294 -380 0
290 291 381 0
-290 -291 -381 0
290 292 383 0
-290 -292 -383 0
291 292 388 0
-291 -292 -388 0
293 294 404 0
-293 -294 -404 0
293 295 405 0
-293 -295 -405 0
294 295 411 0
-294 -295 -411 0
296 300 310 0
-296 -300 -310 0
296 301 312 0
-296 -301 -312 0
296 304 314 0
-296 -304 -314 0
297 299 318 0
-297 -299 -318 0
297 302 321 0
-297 -302 -321 0
297 306 324 0
-297 -306 -324 0
298 301 328 0
-298 -301 -328 0
298 302 329 0
-298 -302 -329 0
299 300 335 0
-299 -300 -335 0
300 301 353 0
-300 -301 -353 0
301 305 374 0
-301 -305 -374 0
302 305 378 0
-302 -305 -378 0
303 304 387 0
-303 -304 -387 0
305 306 403 0
-305 -306 -403 0
307 309 319 0
-307 -309 -319 0
307 313 322 0
-307 -313 -322 0
307 316 325 0
-307 -316 -325 0
308 311 326 0
-308 -311 -326 0
308 312 328 0
-308 -312 -328 0
308 315 331 0
-308 -315 -331 0
309 310 343 0
-309 -310 -343 0
309 311 344 0
-309 -311 -344 0
310 311 351 0
-310 -311 -351 0
311 312 360 0
-311 -312 -360 0
313 314 382 0
-313 -314 -382 0
313 315 384 0
-313 -315 -384 0
314 315 394 0
-314 -315 -394 0
317 320 327 0
-317 -320 -327 0
317 321 329 0
-317 -321 -329 0
317 323 332 0
-317 -323 -332 0
318 319 334 0
-318 -319 -334 0
318 320 337 0
-318 -320 -337 0
319 320 345 0
-319 -320 -345 0
319 321 346 0
-319 -321 -346 0
321 324 379 0
-321 -324 -379 0
323 324 406 0
-323 -324 -406 0
323 325 407 0
-323 -325 -407 0
324 325 409 0
-324 -325 -409 0
326 327 359 0
-326 -327 -359 0
327 328 366 0
-327 -328 -366 0
327 329 367 0
-327 -329 -367 0
329 330 377 0
-329 -330 -377 0
330 331 398 0
-330 -331 -398 0
332 333 408 0
-332 -333 -408 0
334 340 348 0
-334 -340 -348 0
334 341 349 0
-334 -341 -349 0
335 338 355 0
-335 -338 -355 0
336 339 361 0
-336 -339 -361 0
336 342 363 0
-336 -342 -363 0
337 340 368 0
-337 -340 -368 0
337 341 369 0
-337 -341 -369 0
338 339 382 0
-338 -339 -382 0
338 340 384 0
-338 -340 -384 0
339 340 394 0
-339 -340 -394 0
341 342 402 0
-341 -342 -402 0
343 346 354 0
-343 -346 -354 0
343 347 357 0
-343 -347 -357 0
343 350 358 0
-343 -350 -358 0
344 347 362 0
-344 -347 -362 0
344 350 364 0
-344 -350 -364 0
345 346 367 0
-345 -346 -367 0
345 348 368 0
-345 -348 -368 0
345 349 369 0
-345 -349 -369 0
346 350 379 0
-346 -350 -379 0
347 348 398 0
-347 -348 -398 0
349 350 403 0
-349 -350 -403 0
351 353 360 0
-351 -353 -360 0
351 357 362 0
-351 -357 -362 0
351 358 364 0
-351 -358 -364 0
352 353 366 0
-352 -353 -366 0
352 354 367 0
-352 -354 -367 0
353 357 373 0
-353 -357 -373 0
354 357 377 0
-354 -357 -377 0
355 356 381 0
-355 -356 -381 0
355 357 383 0
-355 -357 -383 0
356 357 388 0
-356 -357 -388 0
359 360 366 0
-359 -360 -366 0
359 365 370 0
-359 -365 -370 0
361 362 393 0
-361 -362 -393 0
363 364 406 0
-363 -364 -406 0
363 365 407 0
-363 -365 -407 0
364 365 409 0
-364 -365 -409 0
367 369 378 0
-367 -369 -378 0
369 370 404 0
-369 -370 -404 0
369 371 405 0
-369 -371 -405 0
370 371 411 0
-370 -371 -411 0
372 373 383 0
-372 -373 -383 0
372 375 385 0
-372 -375 -385 0
373 374 399 0
-373 -374 -399 0
374 375 402 0
-374 -375 -402 0
376 377 388 0
-376 -377 -388 0
376 380 392 0
-376 -380 -392 0
378 379 403 0
-378 -379 -403 0
378 380 404 0
-378 -380 -404 0
379 380 409 0
-379 -380 -409 0
381 385 390 0
-381 -385 -390 0
382 386 397 0
-382 -386 -397 0
383 385 400 0
-383 -385 -400 0
384 386 401 0
-384 -386 -401 0
385 386 408 0
-385 -386 -408 0
387 392 396 0
-387 -392 -396 0
388 390 400 0
-388 -390 -400 0
390 391 406 0
-390 -391 -406 0
390 392 407 0
-390 -392 -407 0
391 392 409 0
-391 -392 -409 0
393 395 399 0
-393 -395 -399 0
394 397 401 0
-394 -397 -401 0
395 396 404 0
-395 -396 -404 0
395 397 405 0
-395 -397 -405 0
396 397 411 0
-396 -397 -411 0
399 400 402 0
-399 -400 -402 0
