p cnf 55 176
1 2 11 0
-1 -2 -11 0
1 3 12 0
-1 -3 -12 0
1 5 14 0
-1 -5 -14 0
1 6 15 0
-1 -6 -15 0
1 10 19 0
-1 -10 -19 0
2 4 21 0
-2 -4 -21 0
2 7 24 0
-2 -7 -24 0
2 9 26 0
-2 -9 -26 0
2 10 27 0
-2 -10 -27 0
3 6 30 0
-3 -6 -30 0
3 7 31 0
-3 -7 -31 0
3 8 32 0
-3 -8 -32 0
4 6 36 0
-4 -6 -36 0
4 7 37 0
-4 -7 -37 0
4 8 38 0
-4 -8 -38 0
4 10 40 0
-4 -10 -40 0
5 6 41 0
-5 -6 -41 0
5 8 43 0
-5 -8 -43 0
5 9 44 0
-5 -9 -44 0
5 10 45 0
-5 -10 -45 0
6 7 46 0
-6 -7 -46 0
7 9 51 0
-7 -9 -51 0
8 9 53 0
-8 -9 -53 0
9 10 55 0
-9 -10 -55 0
11 12 20 0
-11 -12 -20 0
11 13 21 0
-11 -13 -21 0
11 15 23 0
-11 -15 -23 0
11 16 24 0
-11 -16 -24 0
12 14 29 0
-12 -14 -29 0
12 17 32 0
-12 -17 -32 0
12 19 34 0
-12 -19 -34 0
13 16 37 0
-13 -16 -37 0
13 17 38 0
-13 -17 -38 0
13 18 39 0
-13 -18 -39 0
14 16 42 0
-14 -16 -42 0
14 17 43 0
-14 -17 -43 0
14 18 44 0
-14 -18 -44 0
15 16 46 0
-15 -16 -46 0
15 18 48 0
-15 -18 -48 0
15 19 49 0
-15 -19 -49 0
16 17 50 0
-16 -17 -50 0
17 19 54 0
-17 -19 -54 0
18 19 55 0
-18 -19 -55 0
20 21 28 0
-20 -21 -28 0
20 22 29 0
-20 -22 -29 0
20 24 31 0
-20 -24 -31 0
20 25 32 0
-20 -25 -32 0
21 23 36 0
-21 -23 -36 0
21 26 39 0
-21 -26 -39 0
22 25 43 0
-22 -25 -43 0
22 26 44 0
-22 -26 -44 0
22 27 45 0
-22 -27 -45 0
23 25 47 0
-23 -25 -47 0
23 26 48 0
-23 -26 -48 0
23 27 49 0
-23 -27 -49 0
24 25 50 0
-24 -25 -50 0
24 27 52 0
-24 -27 -52 0
25 26 53 0
-25 -26 -53 0
28 29 35 0
-28 -29 -35 0
28 30 36 0
-28 -30 -36 0
28 32 38 0
-28 -32 -38 0
28 33 39 0
-28 -33 -39 0
29 31 42 0
-29 -31 -42 0
29 34 45 0
-29 -34 -45 0
30 33 48 0
-30 -33 -48 0
30 34 49 0
-30 -34 -49 0
31 33 51 0
-31 -33 -51 0
31 34 52 0
-31 -34 -52 0
32 33 53 0
-32 -33 -53 0
33 34 55 0
-33 -34 -55 0
35 36 41 0
-35 -36 -41 0
35 37 42 0
-35 -37 -42 0
35 39 44 0
-35 -39 -44 0
35 40 45 0
-35 -40 -45 0
36 38 47 0
-36 -38 -47 0
37 40 52 0
-37 -40 -52 0
38 40 54 0
-38 -40 -54 0
39 40 55 0
-39 -40 -55 0
41 42 46 0
-41 -42 -46 0
41 43 47 0
-41 -43 -47 0
41 45 49 0
-41 -45 -49 0
42 44 51 0
-42 -44 -51 0
46 47 50 0
-46 -47 -50 0
46 48 51 0
-46 -48 -51 0
47 49 54 0
-47 -49 -54 0
50 51 53 0
-50 -51 -53 0
50 52 54 0
-50 -52 -54 0
53 54 55 0
-53 -54 -55 0
