p cnf 66 240
1 2 12 0
-1 -2 -12 0
1 3 13 0
-1 -3 -13 0
1 5 15 0
-1 -5 -15 0
1 6 16 0
-1 -6 -16 0
1 7 17 0
-1 -7 -17 0
1 11 21 0
-1 -11 -21 0
2 4 23 0
-2 -4 -23 0
2 5 24 0
-2 -5 -24 0
2 7 26 0
-2 -7 -26 0
2 9 28 0
-2 -9 -28 0
2 10 29 0
-2 -10 -29 0
2 11 30 0
-2 -11 -30 0
3 4 31 0
-3 -4 -31 0
3 8 35 0
-3 -8 -35 0
3 9 36 0
-3 -9 -36 0
4 5 39 0
-4 -5 -39 0
4 6 40 0
-4 -6 -40 0
4 8 42 0
-4 -8 -42 0
5 7 47 0
-5 -7 -47 0
5 9 49 0
-5 -9 -49 0
5 10 50 0
-5 -10 -50 0
6 7 52 0
-6 -7 -52 0
6 9 54 0
-6 -9 -54 0
6 10 55 0
-6 -10 -55 0
6 11 56 0
-6 -11 -56 0
7 8 57 0
-7 -8 -57 0
8 9 61 0
-8 -9 -61 0
8 10 62 0
-8 -10 -62 0
8 11 63 0
-8 -11 -63 0
10 11 66 0
-10 -11 -66 0
12 13 22 0
-12 -13 -22 0
12 14 23 0
-12 -14 -23 0
12 18 27 0
-12 -18 -27 0
12 19 28 0
-12 -19 -28 0
12 20 29 0
-12 -20 -29 0
13 15 32 0
-13 -15 -32 0
13 16 33 0
-13 -16 -33 0
13 17 34 0
-13 -17 -34 0
13 18 35 0
-13 -18 -35 0
13 19 36 0
-13 -19 -36 0
14 15 39 0
-14 -15 -39 0
14 16 40 0
-14 -16 -40 0
14 17 41 0
-14 -17 -41 0
14 18 42 0
-14 -18 -42 0
15 19 49 0
-15 -19 -49 0
15 20 50 0
-15 -20 -50 0
15 21 51 0
-15 -21 -51 0
16 19 54 0
-16 -19 -54 0
16 20 55 0
-16 -20 -55 0
17 20 59 0
-17 -20 -59 0
17 21 60 0
-17 -21 -60 0
18 20 62 0
-18 -20 -62 0
18 21 63 0
-18 -21 -63 0
19 20 64 0
-19 -20 -64 0
19 21 65 0
-19 -21 -65 0
22 23 31 0
-22 -23 -31 0
22 25 33 0
-22 -25 -33 0
22 26 34 0
-22 -26 -34 0
22 29 37 0
-22 -29 -37 0
22 30 38 0
-22 -30 -38 0
23 25 40 0
-23 -25 -40 0
23 28 43 0
-23 -28 -43 0
23 30 45 0
-23 -30 -45 0
24 25 46 0
-24 -25 -46 0
24 27 48 0
-24 -27 -48 0
24 30 51 0
-24 -30 -51 0
25 28 54 0
-25 -28 -54 0
26 27 57 0
-26 -27 -57 0
26 28 58 0
-26 -28 -58 0
26 29 59 0
-26 -29 -59 0
27 28 61 0
-27 -28 -61 0
27 30 63 0
-27 -30 -63 0
31 32 39 0
-31 -32 -39 0
31 36 43 0
-31 -36 -43 0
31 37 44 0
-31 -37 -44 0
32 33 46 0
-32 -33 -46 0
32 34 47 0
-32 -34 -47 0
32 35 48 0
-32 -35 -48 0
32 38 51 0
-32 -38 -51 0
33 37 55 0
-33 -37 -55 0
33 38 56 0
-33 -38 -56 0
34 35 57 0
-34 -35 -57 0
34 36 58 0
-34 -36 -58 0
35 37 62 0
-35 -37 -62 0
35 38 63 0
-35 -38 -63 0
36 37 64 0
-36 -37 -64 0
36 38 65 0
-36 -38 -65 0
37 38 66 0
-37 -38 -66 0
39 40 46 0
-39 -40 -46 0
39 43 49 0
-39 -43 -49 0
39 44 50 0
-39 -44 -50 0
39 45 51 0
-39 -45 -51 0
40 42 53 0
-40 -42 -53 0
40 44 55 0
-40 -44 -55 0
40 45 56 0
-40 -45 -56 0
41 42 57 0
-41 -42 -57 0
41 43 58 0
-41 -43 -58 0
41 44 59 0
-41 -44 -59 0
41 45 60 0
-41 -45 -60 0
42 43 61 0
-42 -43 -61 0
43 45 65 0
-43 -45 -65 0
46 47 52 0
-46 -47 -52 0
46 48 53 0
-46 -48 -53 0
47 49 58 0
-47 -49 -58 0
47 50 59 0
-47 -50 -59 0
47 51 60 0
-47 -51 -60 0
48 49 61 0
-48 -49 -61 0
48 50 62 0
-48 -50 -62 0
50 51 66 0
-50 -51 -66 0
52 53 57 0
-52 -53 -57 0
52 54 58 0
-52 -54 -58 0
52 56 60 0
-52 -56 -60 0
53 54 61 0
-53 -54 -61 0
53 55 62 0
-53 -55 -62 0
54 56 65 0
-54 -56 -65 0
57 59 62 0
-57 -59 -62 0
57 60 63 0
-57 -60 -63 0
58 59 64 0
-58 -59 -64 0
61 62 64 0
-61 -62 -64 0
61 63 65 0
-61 -63 -65 0
