0 24
0 25
0 26
0 27
0 28
0 29
0 30
0 31
0 32
0 33
0 34
0 35
1 16
1 23
1 32
1 37
1 49
2 18
2 20
2 24
2 38
2 53
3 19
3 21
3 31
3 36
3 43
3 54
4 13
4 14
4 20
4 27
4 34
4 40
4 46
4 55
4 56
4 57
4 62
4 63
4 74
5 14
5 15
5 22
5 24
5 29
5 45
5 48
5 57
5 58
5 64
5 65
5 75
6 10
6 15
6 17
6 26
6 31
6 41
6 47
6 50
6 58
6 59
6 66
6 67
6 76
7 10
7 11
7 19
7 23
7 28
7 33
7 42
7 43
7 49
7 52
7 59
7 60
7 68
7 69
7 77
8 11
8 12
8 16
8 21
8 30
8 35
8 51
8 54
8 60
8 61
8 70
8 71
8 78
9 12
9 13
9 18
9 25
9 32
9 39
9 44
9 53
9 56
9 61
9 72
9 73
9 79
10 12
10 14
10 19
10 26
10 33
10 45
10 54
10 74
10 79
10 85
11 13
11 15
11 21
11 23
11 28
11 35
11 36
11 37
11 44
11 47
11 74
11 75
11 80
12 14
12 16
12 25
12 30
12 46
12 49
12 75
12 76
12 81
13 15
13 18
13 27
13 32
13 37
13 38
13 48
13 51
13 76
13 77
14 20
14 29
14 34
14 50
14 53
14 77
14 78
14 82
14 83
15 17
15 22
15 24
15 31
15 36
15 38
15 52
15 55
15 78
15 79
15 84
16 34
16 46
16 73
16 80
16 85
16 86
17 27
17 41
17 55
17 64
17 87
18 24
18 39
18 48
18 63
18 80
18 81
18 88
19 29
19 42
19 45
19 66
19 89
20 26
20 40
20 50
20 65
20 81
20 90
21 31
21 47
21 68
21 91
22 28
22 52
22 67
22 82
22 92
23 32
23 43
23 44
23 71
23 84
23 85
23 96
24 26
24 34
24 57
24 79
24 80
24 87
24 97
24 98
24 102
24 108
25 27
25 35
25 56
25 75
25 86
25 88
25 98
25 103
25 109
26 28
26 58
26 74
26 81
26 87
26 89
26 103
26 110
27 29
27 57
27 76
27 88
27 90
27 104
27 111
28 30
28 59
28 75
28 89
28 91
28 99
28 104
28 112
29 31
29 58
29 77
29 90
29 92
29 99
29 105
29 113
30 32
30 60
30 76
30 82
30 91
30 93
30 100
30 105
30 114
31 33
31 59
31 78
31 92
31 94
31 100
31 106
31 115
32 34
32 61
32 77
32 84
32 93
32 95
32 106
32 116
33 35
33 60
33 79
33 83
33 94
33 96
33 107
33 117
34 56
34 78
34 85
34 95
34 97
34 101
34 107
34 118
35 61
35 74
35 86
35 96
35 101
35 102
35 119
36 45
36 54
37 46
37 49
38 50
38 53
39 46
39 73
39 102
39 109
40 48
40 63
40 103
40 111
41 45
41 66
41 104
41 110
42 47
42 68
42 105
42 112
43 54
43 69
43 106
43 117
44 79
44 80
44 119
44 120
45 75
45 110
46 74
46 81
46 109
47 76
47 112
48 75
48 111
48 121
49 77
49 114
50 76
50 82
50 113
51 78
51 116
51 122
52 77
52 84
52 115
53 79
53 83
53 118
54 78
54 85
54 117
54 123
55 74
55 108
56 63
56 72
56 98
56 101
56 120
57 62
57 65
57 98
58 64
58 67
58 99
58 121
59 66
59 69
59 99
59 100
60 68
60 71
60 100
60 122
61 70
61 73
61 101
61 123
62 97
62 109
62 124
63 88
63 108
63 125
64 87
64 111
64 126
65 90
65 110
65 127
66 89
66 113
66 128
67 92
67 112
67 129
68 91
68 115
68 130
69 94
69 114
69 131
70 93
70 117
70 132
71 96
71 116
71 133
72 95
72 119
72 134
73 86
73 118
73 135
74 85
74 102
74 103
74 120
74 124
74 125
75 80
75 103
75 104
75 126
75 127
76 81
76 104
76 105
76 121
76 128
76 129
77 83
77 105
77 106
77 122
77 130
77 131
78 82
78 106
78 107
78 132
78 133
79 84
79 102
79 107
79 123
79 134
79 135
80 86
80 125
81 88
81 121
81 127
82 92
82 131
83 95
83 122
83 132
84 94
84 123
84 133
85 96
85 120
85 135
86 97
86 109
86 119
86 125
87 88
87 108
87 110
87 124
88 109
88 111
88 127
89 90
89 110
89 112
89 126
90 111
90 113
90 129
91 92
91 112
91 114
91 128
92 113
92 115
92 131
93 94
93 114
93 116
93 130
94 115
94 117
94 133
95 96
95 116
95 118
95 132
96 117
96 119
96 135
97 108
97 118
97 134
98 102
98 103
99 104
99 105
100 105
100 106
101 102
101 107
102 124
102 135
103 125
103 126
104 127
104 128
105 129
105 130
106 131
106 132
107 133
107 134
108 125
109 124
110 127
111 121
111 126
112 129
113 128
114 131
115 130
116 122
116 133
117 123
117 132
118 135
119 120
119 134
120 125
121 129
122 130
123 135
