0 25
0 26
0 27
0 28
0 29
0 30
0 31
0 32
0 33
0 34
0 35
0 36
1 21
1 23
1 36
1 38
1 48
2 18
2 24
2 28
2 39
2 52
3 18
3 19
3 30
3 42
3 54
4 19
4 20
4 32
4 37
4 56
5 14
5 15
5 23
5 28
5 35
5 45
5 48
5 57
5 58
5 59
5 64
5 65
5 76
6 15
6 16
6 24
6 25
6 30
6 40
6 47
6 50
6 59
6 60
6 66
6 67
6 77
7 11
7 16
7 18
7 22
7 27
7 32
7 41
7 42
7 49
7 52
7 60
7 61
7 68
7 69
7 78
8 11
8 12
8 19
8 29
8 34
8 51
8 54
8 61
8 62
8 70
8 71
8 79
9 12
9 13
9 17
9 20
9 31
9 36
9 43
9 44
9 53
9 56
9 62
9 63
9 72
9 73
9 80
10 13
10 14
10 21
10 26
10 33
10 46
10 55
10 58
10 63
10 74
10 75
10 81
11 13
11 15
11 19
11 22
11 27
11 34
11 47
11 56
11 76
11 81
11 88
12 14
12 16
12 20
12 29
12 36
12 37
12 38
12 46
12 49
12 76
12 77
12 82
13 15
13 17
13 21
13 26
13 31
13 48
13 51
13 77
13 78
13 83
14 16
14 23
14 28
14 33
14 38
14 39
14 50
14 53
14 78
14 79
14 84
15 24
15 30
15 35
15 52
15 55
15 79
15 80
15 85
15 86
16 18
16 25
16 32
16 37
16 39
16 54
16 57
16 80
16 81
16 87
17 35
17 44
17 48
17 75
17 88
17 89
18 28
18 41
18 57
18 66
18 82
18 90
19 30
19 47
19 68
19 82
19 92
20 32
20 43
20 49
20 70
20 84
20 94
21 34
21 51
21 72
21 84
21 86
21 96
22 31
22 42
22 56
22 71
22 85
22 97
23 36
23 45
23 53
23 74
23 86
23 87
23 98
24 26
24 40
24 55
24 64
24 87
24 100
25 27
25 35
25 59
25 81
25 90
25 100
25 101
25 104
25 110
26 28
26 36
26 58
26 77
26 89
26 91
26 101
26 105
26 111
27 29
27 60
27 76
27 83
27 90
27 92
27 105
27 112
28 30
28 59
28 78
28 82
28 91
28 93
28 106
28 113
29 31
29 61
29 77
29 92
29 94
29 102
29 106
29 114
30 32
30 60
30 79
30 93
30 95
30 102
30 107
30 115
31 33
31 62
31 78
31 85
31 94
31 96
31 107
31 116
32 34
32 61
32 80
32 84
32 95
32 97
32 108
32 117
33 35
33 63
33 79
33 96
33 98
33 103
33 108
33 118
34 36
34 62
34 81
34 86
34 97
34 99
34 103
34 109
34 119
35 58
35 80
35 88
35 98
35 100
35 109
35 120
36 63
36 76
36 87
36 89
36 99
36 104
36 121
37 47
37 56
38 48
38 51
39 52
39 55
40 57
40 66
40 105
40 110
41 47
41 68
41 106
41 112
42 54
42 69
42 107
42 117
43 51
43 72
43 108
43 116
44 46
44 73
44 109
44 121
45 55
45 64
45 104
45 120
46 81
46 121
46 122
47 77
47 112
47 123
48 76
48 83
48 111
48 124
49 78
49 82
49 114
50 77
50 113
50 125
51 79
51 116
51 126
52 78
52 85
52 115
53 80
53 84
53 118
54 79
54 117
54 127
55 81
55 86
55 120
55 128
56 80
56 88
56 119
57 76
57 87
57 110
58 65
58 74
58 101
58 122
59 64
59 67
59 101
59 123
59 124
60 66
60 69
60 102
60 125
61 68
61 71
61 102
61 126
62 70
62 73
62 103
62 127
63 72
63 75
63 103
63 128
64 100
64 111
64 129
65 91
65 110
65 130
66 90
66 113
66 131
67 93
67 112
67 132
68 92
68 115
68 133
69 95
69 114
69 134
70 94
70 117
70 135
71 97
71 116
71 136
72 96
72 119
72 137
73 99
73 118
73 138
74 98
74 121
74 139
75 89
75 120
75 140
76 82
76 88
76 104
76 105
76 122
76 123
76 129
76 130
77 105
77 106
77 124
77 131
77 132
78 83
78 84
78 106
78 107
78 125
78 126
78 133
78 134
79 86
79 107
79 108
79 135
79 136
80 85
80 87
80 108
80 109
80 127
80 128
80 137
80 138
81 104
81 109
81 139
81 140
82 92
82 123
82 131
83 91
83 125
83 132
84 96
84 126
84 135
85 95
85 127
85 136
86 98
86 137
87 100
87 128
87 139
88 99
88 122
88 140
89 100
89 111
89 121
89 130
90 91
90 110
90 112
90 129
91 111
91 113
91 132
92 93
92 112
92 114
92 131
93 113
93 115
93 134
94 95
94 114
94 116
94 133
95 115
95 117
95 136
96 97
96 116
96 118
96 135
97 117
97 119
97 138
98 99
98 118
98 120
98 137
99 119
99 121
99 140
100 110
100 120
100 139
101 104
101 105
102 106
102 107
103 108
103 109
104 129
104 140
105 130
105 131
106 132
106 133
107 134
107 135
108 136
108 137
109 138
109 139
110 130
111 124
111 129
112 123
112 132
113 125
113 131
114 134
115 133
116 126
116 136
117 127
117 135
118 138
119 137
120 128
120 140
121 122
121 139
122 130
123 124
123 129
124 132
125 134
126 133
127 138
128 137
