0 23
0 24
0 25
0 26
0 27
0 28
0 29
0 30
0 31
0 32
0 33
0 34
1 29
1 35
1 43
1 51
2 17
2 31
2 36
2 45
2 53
3 22
3 26
3 37
3 42
3 54
4 18
4 28
4 38
4 44
4 56
5 14
5 15
5 21
5 26
5 33
5 50
5 59
5 60
5 61
5 66
5 67
5 78
6 15
6 16
6 20
6 22
6 23
6 28
6 40
6 42
6 49
6 52
6 61
6 62
6 68
6 69
6 79
7 11
7 16
7 25
7 30
7 41
7 44
7 51
7 54
7 62
7 63
7 70
7 71
7 80
8 11
8 12
8 18
8 27
8 32
8 43
8 46
8 53
8 56
8 63
8 64
8 72
8 73
8 81
9 12
9 13
9 17
9 19
9 29
9 34
9 45
9 47
9 55
9 58
9 64
9 65
9 74
9 75
9 82
10 13
10 14
10 24
10 31
10 39
10 48
10 57
10 60
10 65
10 76
10 77
10 83
11 13
11 15
11 18
11 25
11 32
11 35
11 38
11 49
11 58
11 78
11 83
11 90
12 14
12 16
12 19
12 27
12 34
12 36
12 48
12 51
12 78
12 79
12 84
13 15
13 17
13 24
13 29
13 35
13 50
13 53
13 79
13 80
13 85
14 16
14 21
14 26
14 31
14 36
14 37
14 52
14 55
14 80
14 81
14 86
14 87
15 22
15 28
15 33
15 38
15 54
15 57
15 81
15 82
15 88
16 20
16 23
16 30
16 37
16 56
16 59
16 82
16 83
16 89
17 33
17 47
17 50
17 77
17 84
17 90
17 91
18 28
18 43
18 49
18 70
18 85
18 94
19 30
19 45
19 51
19 72
19 85
19 87
19 96
20 27
20 42
20 56
20 71
20 86
20 88
20 97
21 34
21 55
21 76
21 89
21 100
22 24
22 40
22 57
22 66
22 89
22 102
23 25
23 33
23 61
23 83
23 84
23 92
23 102
23 103
23 107
23 117
24 26
24 34
24 60
24 79
24 91
24 93
24 103
24 108
24 118
25 27
25 62
25 78
25 92
25 94
25 104
25 108
25 113
25 119
26 28
26 61
26 80
26 93
26 95
26 104
26 109
26 120
27 29
27 63
27 79
27 86
27 94
27 96
27 109
27 114
27 121
28 30
28 62
28 81
28 85
28 95
28 97
28 110
28 122
29 31
29 64
29 80
29 88
29 96
29 98
29 105
29 110
29 123
30 32
30 63
30 82
30 87
30 97
30 99
30 105
30 111
30 115
30 124
31 33
31 65
31 81
31 98
31 100
31 106
31 111
31 125
32 34
32 64
32 83
32 99
32 101
32 106
32 112
32 116
32 126
33 60
33 82
33 90
33 100
33 102
33 112
33 127
34 65
34 78
34 89
34 91
34 101
34 107
34 128
35 48
35 51
35 113
36 50
36 53
36 114
37 54
37 57
37 115
38 56
38 59
38 116
39 50
39 77
39 107
39 118
40 59
40 68
40 108
40 117
41 42
41 49
41 70
41 109
41 119
42 54
42 69
42 109
42 122
43 44
43 51
43 72
43 110
43 121
44 56
44 71
44 110
44 124
45 46
45 53
45 74
45 111
45 123
46 58
46 73
46 111
46 126
47 48
47 75
47 112
47 128
48 83
48 84
48 128
49 79
49 119
50 78
50 118
50 129
51 80
51 113
51 121
51 130
52 79
52 86
52 120
52 131
53 81
53 85
53 114
53 123
53 132
54 80
54 88
54 115
54 122
54 133
55 82
55 87
55 125
55 134
56 81
56 116
56 124
56 135
57 83
57 127
57 136
58 82
58 90
58 126
59 78
59 89
59 117
59 137
60 67
60 76
60 103
60 137
61 66
61 69
61 103
61 104
61 129
62 68
62 71
62 104
62 130
62 131
63 70
63 73
63 105
63 132
63 133
64 72
64 75
64 105
64 106
64 134
64 135
65 74
65 77
65 106
65 136
66 102
66 118
66 138
67 93
67 117
67 139
68 92
68 120
68 140
69 95
69 119
69 141
70 94
70 122
70 142
71 97
71 121
71 143
72 96
72 124
72 144
73 99
73 123
73 145
74 98
74 126
74 146
75 101
75 125
75 147
76 100
76 128
76 148
77 91
77 127
77 149
78 90
78 107
78 108
78 138
78 139
79 84
79 85
79 108
79 109
79 129
79 130
79 140
79 141
80 87
80 109
80 110
80 131
80 132
80 142
80 143
81 86
81 110
81 111
81 133
81 134
81 144
81 145
82 88
82 89
82 111
82 112
82 135
82 136
82 146
82 147
83 107
83 112
83 137
83 148
83 149
84 91
84 113
84 129
84 139
85 96
85 130
85 142
86 95
86 114
86 133
86 143
87 98
87 115
87 132
87 144
88 97
88 135
88 145
89 102
89 116
89 136
89 148
90 101
90 149
91 102
91 118
91 128
91 139
92 93
92 117
92 119
92 138
93 118
93 120
93 141
94 95
94 119
94 121
94 140
95 120
95 122
95 143
96 97
96 121
96 123
96 142
97 122
97 124
97 145
98 99
98 123
98 125
98 144
99 124
99 126
99 147
100 101
100 125
100 127
100 146
101 126
101 128
101 149
102 117
102 127
102 148
103 107
103 108
104 108
104 109
105 110
105 111
106 111
106 112
107 138
107 149
108 139
108 140
109 141
109 142
110 143
110 144
111 145
111 146
112 147
112 148
113 130
114 132
115 133
116 135
117 137
117 139
118 129
118 138
119 141
120 131
120 140
121 130
121 143
122 133
122 142
123 132
123 145
124 135
124 144
125 134
125 147
126 146
127 136
127 149
128 148
129 141
130 131
130 140
131 143
132 133
132 142
133 145
134 135
134 144
135 147
136 146
137 148
