0 68
0 69
0 70
0 71
0 72
0 73
0 74
0 75
0 76
0 77
0 78
0 79
0 80
0 81
0 82
0 83
0 84
0 85
0 86
0 87
0 88
0 89
0 90
0 91
0 92
0 93
0 94
0 95
0 96
1 64
1 66
1 93
1 98
1 100
1 101
1 112
2 65
2 67
2 80
2 96
2 97
2 102
2 103
2 112
3 69
3 82
3 104
3 113
4 62
4 66
4 74
4 87
4 98
4 99
4 104
4 106
4 114
4 115
5 63
5 67
5 77
5 90
5 105
5 107
5 115
6 78
6 92
6 106
6 108
6 116
6 117
7 81
7 95
7 107
7 109
7 117
7 118
8 62
8 64
8 68
8 83
8 99
8 100
8 108
8 119
9 63
9 65
9 71
9 86
9 97
9 109
9 110
9 119
9 120
10 73
10 88
10 101
10 111
11 39
11 40
11 47
11 49
11 67
11 103
11 110
11 121
12 40
12 41
12 48
12 64
12 101
12 104
12 124
13 28
13 45
13 46
13 49
13 63
13 103
13 107
13 125
14 28
14 29
14 66
14 104
14 108
14 127
15 33
15 34
15 46
15 47
15 65
15 107
15 110
15 128
16 34
16 35
16 48
16 62
16 101
16 108
16 130
17 38
17 41
17 55
17 94
17 100
18 40
18 43
18 56
18 61
18 69
18 80
18 97
18 122
18 125
19 28
19 43
19 51
19 58
19 74
19 85
19 99
19 124
19 134
20 29
20 44
20 59
20 75
20 87
20 98
21 28
21 31
21 53
21 60
21 78
21 90
21 126
21 128
21 135
22 29
22 32
22 61
22 79
22 92
22 136
23 30
23 33
23 54
23 81
23 94
23 137
24 31
24 34
24 50
24 55
24 83
24 95
24 100
24 127
24 129
24 138
25 32
25 35
25 51
25 68
25 84
25 99
25 139
26 33
26 36
26 56
26 70
26 86
26 97
27 34
27 37
27 52
27 57
27 71
27 88
27 121
27 140
28 34
28 40
28 53
28 58
28 63
28 66
28 74
28 90
28 112
28 119
28 122
28 129
28 132
28 140
28 141
28 145
28 146
28 157
29 35
29 41
29 59
29 75
29 92
29 146
30 36
30 42
30 54
30 67
30 77
30 94
30 120
30 131
30 147
31 37
31 43
31 55
31 60
31 78
31 95
31 111
31 113
31 121
31 124
31 132
31 147
31 148
32 38
32 44
32 61
32 64
32 68
32 79
32 114
32 148
33 39
33 45
33 56
33 70
33 81
33 133
33 149
34 40
34 50
34 57
34 62
34 65
34 71
34 83
34 112
34 115
34 123
34 126
34 134
34 142
34 149
34 150
35 41
35 51
35 73
35 84
35 116
35 150
36 42
36 58
36 63
36 75
36 86
36 133
36 151
37 43
37 52
37 59
37 76
37 88
37 113
37 117
37 125
37 127
37 134
37 135
37 151
37 152
38 44
38 53
38 66
38 89
38 114
38 136
38 152
39 45
39 60
39 79
39 91
39 118
39 137
39 153
40 54
40 61
40 64
40 67
40 80
40 93
40 115
40 119
40 135
40 138
40 143
40 144
40 153
40 154
41 55
41 82
41 94
41 116
41 136
41 139
41 154
42 50
42 65
42 84
42 96
42 120
42 137
42 155
43 51
43 56
43 69
43 85
43 111
43 117
43 128
43 130
43 138
43 140
43 155
43 156
44 57
44 62
44 70
44 87
44 139
44 156
45 52
45 72
45 89
45 118
45 131
45 157
46 103
46 110
46 131
46 141
47 103
47 107
47 133
47 135
47 142
48 104
48 108
48 134
48 136
48 143
49 107
49 110
49 137
49 140
49 144
50 75
50 93
50 123
50 147
50 157
51 76
51 94
51 130
51 146
51 148
52 69
52 79
52 125
52 147
52 149
53 70
53 80
53 122
53 148
53 150
54 74
54 84
54 149
54 151
55 75
55 85
55 124
55 150
55 152
56 78
56 89
56 128
56 151
56 153
57 79
57 90
57 126
57 152
57 154
58 83
58 94
58 129
58 153
58 155
59 84
59 95
59 127
59 154
59 156
60 70
60 88
60 121
60 155
60 157
61 71
61 89
61 146
61 156
62 98
62 100
62 130
63 97
63 125
64 98
64 99
64 124
65 128
66 99
66 100
66 127
66 158
67 97
67 121
68 73
68 92
69 74
69 93
69 140
69 147
70 75
70 94
70 148
70 157
71 76
71 95
71 110
71 146
72 77
72 96
72 103
72 131
73 101
74 78
74 104
74 132
74 149
75 79
75 133
75 147
75 150
76 80
76 102
76 134
76 148
77 81
77 105
78 83
78 106
78 151
79 84
79 149
79 152
80 85
80 103
80 135
80 150
81 86
81 107
81 133
82 87
82 104
82 136
83 88
83 108
83 134
83 153
84 89
84 137
84 151
84 154
85 90
85 105
85 138
85 152
86 91
86 109
87 92
87 106
87 139
88 93
88 135
88 155
89 94
89 136
89 153
89 156
90 95
90 107
90 140
90 154
91 96
91 110
91 137
92 108
93 101
93 138
93 157
94 131
94 139
94 146
94 155
95 109
95 132
95 156
96 102
97 145
98 142
99 144
100 141
100 158
101 112
102 111
103 112
104 115
105 113
106 114
106 117
107 115
107 118
108 116
108 119
109 117
109 120
110 119
111 122
111 129
112 121
112 124
112 141
113 123
113 126
115 125
115 127
115 142
115 143
119 128
119 130
119 144
119 145
121 140
121 147
122 146
123 132
123 149
124 134
124 148
125 151
126 135
126 150
127 138
127 152
128 135
128 155
129 138
129 157
130 132
130 156
131 147
132 148
132 157
133 151
134 149
134 152
135 151
135 154
136 152
137 155
138 153
138 156
138 158
139 154
140 146
140 155
141 145
143 144
145 158
