0 25
0 26
0 27
0 28
0 29
0 30
0 31
0 32
0 33
0 34
0 35
0 36
1 10
1 11
1 17
1 22
1 28
1 35
1 42
1 51
1 54
1 63
1 64
1 65
1 70
1 71
1 82
2 11
2 12
2 19
2 24
2 25
2 30
2 41
2 44
2 53
2 56
2 65
2 66
2 72
2 73
2 83
3 7
3 12
3 14
3 21
3 27
3 32
3 43
3 46
3 55
3 58
3 66
3 67
3 74
3 75
3 84
4 7
4 8
4 16
4 23
4 29
4 34
4 45
4 48
4 57
4 60
4 67
4 68
4 76
4 77
4 85
5 8
5 9
5 13
5 18
5 31
5 36
5 47
5 50
5 59
5 62
5 68
5 69
5 78
5 79
5 86
6 9
6 10
6 15
6 20
6 26
6 33
6 40
6 49
6 52
6 61
6 64
6 69
6 80
6 81
6 87
7 9
7 11
7 16
7 21
7 27
7 34
7 37
7 39
7 53
7 62
7 82
7 87
7 88
7 99
8 10
8 12
8 18
8 23
8 29
8 36
8 52
8 55
8 82
8 83
8 89
8 90
9 11
9 13
9 20
9 26
9 31
9 37
9 38
9 54
9 57
9 83
9 84
9 91
9 92
10 12
10 15
10 22
10 28
10 33
10 56
10 59
10 84
10 85
10 93
10 94
11 17
11 24
11 30
11 35
11 38
11 39
11 58
11 61
11 85
11 86
11 95
11 96
12 14
12 19
12 25
12 32
12 60
12 63
12 86
12 87
12 97
12 98
13 35
13 50
13 54
13 81
13 89
13 99
13 100
14 28
14 43
14 63
14 72
14 88
14 90
14 101
15 25
15 40
15 56
15 71
15 89
15 91
15 102
16 30
16 45
16 53
16 74
16 90
16 92
16 103
17 27
17 42
17 58
17 73
17 91
17 93
17 104
18 32
18 47
18 55
18 76
18 92
18 94
18 105
19 29
19 44
19 60
19 75
19 93
19 95
19 106
20 34
20 49
20 57
20 78
20 94
20 96
20 107
21 31
21 46
21 62
21 77
21 95
21 97
21 108
22 36
22 51
22 59
22 80
22 96
22 98
22 109
23 33
23 48
23 52
23 79
23 97
23 99
23 110
24 26
24 41
24 61
24 70
24 88
24 98
24 111
25 27
25 35
25 65
25 87
25 89
25 101
25 111
25 112
25 118
25 130
26 28
26 36
26 64
26 83
26 88
26 100
26 102
26 112
26 119
26 124
26 131
27 29
27 66
27 82
27 91
27 101
27 103
27 113
27 119
27 125
27 132
28 30
28 65
28 84
28 90
28 102
28 104
28 113
28 120
28 133
29 31
29 67
29 83
29 93
29 103
29 105
29 114
29 120
29 134
30 32
30 66
30 85
30 92
30 104
30 106
30 114
30 121
30 126
30 135
31 33
31 68
31 84
31 95
31 105
31 107
31 115
31 121
31 127
31 136
32 34
32 67
32 86
32 94
32 106
32 108
32 115
32 122
32 137
33 35
33 69
33 85
33 97
33 107
33 109
33 116
33 122
33 138
34 36
34 68
34 87
34 96
34 108
34 110
34 116
34 123
34 128
34 139
35 64
35 86
35 99
35 109
35 111
35 117
35 123
35 129
35 140
36 69
36 82
36 98
36 100
36 110
36 117
36 118
36 141
37 52
37 55
37 124
37 125
38 56
38 59
38 126
38 127
39 60
39 63
39 128
39 129
40 51
40 54
40 81
40 118
40 131
41 42
41 63
41 72
41 119
41 130
42 56
42 71
42 119
42 133
43 44
43 53
43 74
43 120
43 132
44 58
44 73
44 120
44 135
45 46
45 55
45 76
45 121
45 134
46 60
46 75
46 121
46 137
47 48
47 57
47 78
47 122
47 136
48 62
48 77
48 122
48 139
49 50
49 59
49 80
49 123
49 138
50 52
50 79
50 123
50 141
51 61
51 70
51 118
51 140
52 87
52 89
52 124
52 141
52 142
53 83
53 88
53 132
53 143
54 82
54 91
54 131
54 144
55 84
55 90
55 125
55 134
55 145
56 83
56 93
56 126
56 133
56 146
57 85
57 92
57 136
57 147
58 84
58 95
58 135
58 148
59 86
59 94
59 127
59 138
59 149
60 85
60 97
60 128
60 137
60 150
61 87
61 96
61 140
61 151
62 86
62 99
62 139
62 152
63 82
63 98
63 129
63 130
63 153
64 71
64 80
64 112
64 117
64 142
64 153
65 70
65 73
65 112
65 113
65 143
65 144
66 72
66 75
66 113
66 114
66 145
66 146
67 74
67 77
67 114
67 115
67 147
67 148
68 76
68 79
68 115
68 116
68 149
68 150
69 78
69 81
69 116
69 117
69 151
69 152
70 111
70 131
70 154
71 102
71 130
71 155
72 101
72 133
72 156
73 104
73 132
73 157
74 103
74 135
74 158
75 106
75 134
75 159
76 105
76 137
76 160
77 108
77 136
77 161
78 107
78 139
78 162
79 110
79 138
79 163
80 109
80 141
80 164
81 100
81 140
81 165
82 90
82 99
82 118
82 119
82 142
82 143
82 154
82 155
83 89
83 92
83 119
83 120
83 144
83 145
83 156
83 157
84 91
84 94
84 120
84 121
84 146
84 147
84 158
84 159
85 93
85 96
85 121
85 122
85 148
85 149
85 160
85 161
86 95
86 98
86 122
86 123
86 150
86 151
86 162
86 163
87 88
87 97
87 118
87 123
87 152
87 153
87 164
87 165
88 101
88 124
88 153
88 154
89 100
89 125
89 144
89 155
90 103
90 124
90 143
90 156
91 102
91 125
91 146
91 157
92 105
92 126
92 145
92 158
93 104
93 127
93 148
93 159
94 107
94 126
94 147
94 160
95 106
95 127
95 150
95 161
96 109
96 128
96 149
96 162
97 108
97 129
97 152
97 163
98 111
98 128
98 151
98 164
99 110
99 129
99 142
99 165
100 111
100 131
100 141
100 155
101 102
101 130
101 132
101 154
102 131
102 133
102 157
103 104
103 132
103 134
103 156
104 133
104 135
104 159
105 106
105 134
105 136
105 158
106 135
106 137
106 161
107 108
107 136
107 138
107 160
108 137
108 139
108 163
109 110
109 138
109 140
109 162
110 139
110 141
110 165
111 130
111 140
111 164
112 118
112 119
113 119
113 120
114 120
114 121
115 121
115 122
116 122
116 123
117 118
117 123
118 154
118 165
119 155
119 156
120 157
120 158
121 159
121 160
122 161
122 162
123 163
123 164
124 142
125 145
126 146
127 149
128 150
129 153
130 153
130 155
131 144
131 154
132 143
132 157
133 146
133 156
134 145
134 159
135 148
135 158
136 147
136 161
137 150
137 160
138 149
138 163
139 152
139 162
140 151
140 165
141 142
141 164
142 153
142 155
143 144
143 154
144 157
145 146
145 156
146 159
147 148
147 158
148 161
149 150
149 160
150 163
151 152
151 162
152 165
153 164
