0 29
0 30
0 31
0 32
0 33
0 34
0 35
0 36
0 37
0 38
0 39
0 40
1 25
1 27
1 35
1 41
1 50
1 60
2 17
2 27
2 37
2 42
2 52
2 62
3 18
3 28
3 32
3 43
3 49
3 63
4 18
4 20
4 34
4 44
4 51
4 65
5 14
5 15
5 21
5 26
5 32
5 39
5 47
5 56
5 59
5 68
5 69
5 70
5 75
5 76
5 87
6 15
6 16
6 23
6 28
6 29
6 34
6 46
6 49
6 58
6 61
6 70
6 71
6 77
6 78
6 88
7 11
7 16
7 18
7 25
7 31
7 36
7 48
7 51
7 60
7 63
7 71
7 72
7 79
7 80
7 89
8 11
8 12
8 20
8 27
8 33
8 38
8 50
8 53
8 62
8 65
8 72
8 73
8 81
8 82
8 90
9 12
9 13
9 17
9 22
9 35
9 40
9 52
9 55
9 64
9 67
9 73
9 74
9 83
9 84
9 91
10 13
10 14
10 19
10 24
10 30
10 37
10 45
10 54
10 57
10 66
10 69
10 74
10 85
10 86
10 92
11 13
11 15
11 20
11 25
11 31
11 38
11 41
11 44
11 58
11 67
11 87
11 92
11 93
11 102
12 14
12 16
12 22
12 27
12 33
12 40
12 42
12 57
12 60
12 87
12 88
12 94
13 15
13 17
13 24
13 30
13 35
13 41
13 59
13 62
13 88
13 89
13 95
13 96
14 16
14 19
14 26
14 32
14 37
14 42
14 43
14 61
14 64
14 89
14 90
14 97
14 98
15 21
15 28
15 34
15 39
15 44
15 63
15 66
15 90
15 91
15 99
15 100
16 18
16 23
16 29
16 36
16 43
16 65
16 68
16 91
16 92
16 101
17 39
17 55
17 59
17 86
17 94
17 102
17 103
18 32
18 48
18 68
18 77
18 93
18 104
19 29
19 45
19 61
19 76
19 94
19 95
19 105
20 34
20 50
20 58
20 79
20 96
20 106
21 31
21 47
21 63
21 78
21 95
21 97
21 107
22 36
22 52
22 60
22 81
22 96
22 98
22 108
23 33
23 49
23 65
23 80
23 97
23 99
23 109
24 38
24 54
24 62
24 83
24 98
24 100
24 110
25 35
25 51
25 67
25 82
25 99
25 111
26 40
26 56
26 64
26 85
26 100
26 101
26 112
27 37
27 53
27 57
27 84
27 102
27 113
28 30
28 46
28 66
28 75
28 93
28 101
28 114
29 31
29 39
29 70
29 92
29 94
29 104
29 114
29 115
29 121
29 131
30 32
30 40
30 69
30 88
30 93
30 103
30 105
30 115
30 122
30 132
31 33
31 71
31 87
31 95
31 104
31 106
31 116
31 122
31 127
31 133
32 34
32 70
32 89
32 105
32 107
32 116
32 123
32 134
33 35
33 72
33 88
33 97
33 106
33 108
33 117
33 123
33 128
33 135
34 36
34 71
34 90
34 96
34 107
34 109
34 117
34 124
34 136
35 37
35 73
35 89
35 99
35 108
35 110
35 118
35 124
35 137
36 38
36 72
36 91
36 98
36 109
36 111
36 118
36 125
36 129
36 138
37 39
37 74
37 90
37 110
37 112
37 119
37 125
37 139
38 40
38 73
38 92
38 100
38 111
38 113
38 119
38 126
38 130
38 140
39 69
39 91
39 102
39 112
39 114
39 120
39 126
39 141
40 74
40 87
40 101
40 103
40 113
40 120
40 121
40 142
41 57
41 60
41 127
42 59
42 62
42 128
43 63
43 66
43 129
44 65
44 68
44 130
45 56
45 59
45 86
45 121
45 132
46 47
46 68
46 77
46 122
46 131
47 61
47 76
47 122
47 134
48 49
48 58
48 79
48 123
48 133
49 63
49 78
49 123
49 136
50 51
50 60
50 81
50 124
50 135
51 65
51 80
51 124
51 138
52 53
52 62
52 83
52 125
52 137
53 67
53 82
53 125
53 140
54 55
54 64
54 85
54 126
54 139
55 57
55 84
55 126
55 142
56 66
56 75
56 121
56 141
57 92
57 94
57 142
57 143
58 88
58 93
58 133
58 144
59 87
59 95
59 132
59 145
60 89
60 127
60 135
60 146
61 88
61 97
61 134
61 147
62 90
62 96
62 128
62 137
62 148
63 89
63 99
63 129
63 136
63 149
64 91
64 98
64 139
64 150
65 90
65 130
65 138
65 151
66 92
66 100
66 141
66 152
67 91
67 102
67 140
67 153
68 87
68 101
68 131
68 154
69 76
69 85
69 115
69 120
69 143
69 154
70 75
70 78
70 115
70 116
70 144
70 145
71 77
71 80
71 116
71 117
71 146
71 147
72 79
72 82
72 117
72 118
72 148
72 149
73 81
73 84
73 118
73 119
73 150
73 151
74 83
74 86
74 119
74 120
74 152
74 153
75 114
75 132
75 155
76 105
76 131
76 156
77 104
77 134
77 157
78 107
78 133
78 158
79 106
79 136
79 159
80 109
80 135
80 160
81 108
81 138
81 161
82 111
82 137
82 162
83 110
83 140
83 163
84 113
84 139
84 164
85 112
85 142
85 165
86 103
86 141
86 166
87 102
87 121
87 122
87 143
87 144
87 155
87 156
88 94
88 96
88 122
88 123
88 145
88 146
88 157
88 158
89 95
89 98
89 123
89 124
89 147
89 148
89 159
89 160
90 97
90 100
90 124
90 125
90 149
90 150
90 161
90 162
91 99
91 101
91 125
91 126
91 151
91 152
91 163
91 164
92 93
92 121
92 126
92 153
92 154
92 165
92 166
93 104
93 154
93 155
94 103
94 127
94 145
94 156
95 105
95 127
95 128
95 147
95 158
96 108
96 146
96 159
97 107
97 128
97 149
97 160
98 110
98 129
98 148
98 161
99 109
99 151
99 162
100 112
100 129
100 130
100 150
100 163
101 114
101 130
101 152
101 165
102 113
102 143
102 166
103 114
103 132
103 142
103 156
104 105
104 131
104 133
104 155
105 132
105 134
105 158
106 107
106 133
106 135
106 157
107 134
107 136
107 160
108 109
108 135
108 137
108 159
109 136
109 138
109 162
110 111
110 137
110 139
110 161
111 138
111 140
111 164
112 113
112 139
112 141
112 163
113 140
113 142
113 166
114 131
114 141
114 165
115 121
115 122
116 122
116 123
117 123
117 124
118 124
118 125
119 125
119 126
120 121
120 126
121 155
121 166
122 156
122 157
123 158
123 159
124 160
124 161
125 162
125 163
126 164
126 165
127 146
128 148
129 149
130 151
131 154
131 156
132 145
132 155
133 144
133 158
134 147
134 157
135 146
135 160
136 149
136 159
137 148
137 162
138 151
138 161
139 150
139 164
140 153
140 163
141 152
141 166
142 143
142 165
143 154
143 156
144 145
144 155
145 158
146 147
146 157
147 160
148 149
148 159
149 162
150 151
150 161
151 164
152 153
152 163
153 166
154 165
