0 37
0 38
0 39
0 40
0 41
0 42
0 43
0 44
0 45
0 46
0 47
0 48
1 30
1 32
1 46
1 62
1 64
2 31
2 33
2 41
2 49
2 55
2 65
3 32
3 34
3 48
3 50
3 52
3 66
4 33
4 35
4 43
4 57
4 67
5 34
5 36
5 38
5 54
5 68
6 25
6 35
6 45
6 50
6 59
6 69
7 26
7 36
7 40
7 51
7 56
7 70
8 25
8 27
8 47
8 61
8 71
9 26
9 28
9 42
9 58
9 72
10 27
10 29
10 37
10 51
10 63
10 73
11 28
11 30
11 44
11 49
11 60
11 74
12 29
12 31
12 39
12 53
12 75
13 22
13 23
13 29
13 34
13 40
13 47
13 54
13 63
13 66
13 75
13 76
13 77
13 82
13 83
13 94
14 23
14 24
14 31
14 36
14 37
14 42
14 53
14 56
14 65
14 68
14 77
14 78
14 84
14 85
14 95
15 19
15 24
15 26
15 33
15 39
15 44
15 55
15 58
15 67
15 70
15 78
15 79
15 86
15 87
15 96
16 19
16 20
16 28
16 35
16 41
16 46
16 57
16 60
16 69
16 72
16 79
16 80
16 88
16 89
16 97
17 20
17 21
17 25
17 30
17 43
17 48
17 59
17 62
17 71
17 74
17 80
17 81
17 90
17 91
17 98
18 21
18 22
18 27
18 32
18 38
18 45
18 52
18 61
18 64
18 73
18 76
18 81
18 92
18 93
18 99
19 21
19 23
19 28
19 33
19 39
19 46
19 65
19 74
19 94
19 99
19 100
19 111
20 22
20 24
20 30
20 35
20 41
20 48
20 49
20 50
20 64
20 67
20 94
20 95
20 101
20 102
21 23
21 25
21 32
21 38
21 43
21 66
21 69
21 95
21 96
21 103
21 104
22 24
22 27
22 34
22 40
22 45
22 50
22 51
22 68
22 71
22 96
22 97
22 105
22 106
23 29
23 36
23 42
23 47
23 70
23 73
23 97
23 98
23 107
23 108
24 26
24 31
24 37
24 44
24 49
24 51
24 72
24 75
24 98
24 99
24 109
24 110
25 47
25 62
25 66
25 93
25 101
25 111
25 112
26 40
26 55
26 75
26 84
26 100
26 102
26 113
27 37
27 52
27 68
27 83
27 101
27 103
27 114
28 42
28 57
28 65
28 86
28 102
28 104
28 115
29 39
29 54
29 70
29 85
29 103
29 105
29 116
30 44
30 59
30 67
30 88
30 104
30 106
30 117
31 41
31 56
31 72
31 87
31 105
31 107
31 118
32 46
32 61
32 69
32 90
32 106
32 108
32 119
33 43
33 58
33 74
33 89
33 107
33 109
33 120
34 48
34 63
34 71
34 92
34 108
34 110
34 121
35 45
35 60
35 64
35 91
35 109
35 111
35 122
36 38
36 53
36 73
36 82
36 100
36 110
36 123
37 39
37 47
37 77
37 99
37 101
37 113
37 123
37 124
37 130
37 136
38 40
38 48
38 76
38 95
38 100
38 112
38 114
38 124
38 131
38 137
39 41
39 78
39 94
39 103
39 113
39 115
39 125
39 131
39 138
40 42
40 77
40 96
40 102
40 114
40 116
40 125
40 132
40 139
41 43
41 79
41 95
41 105
41 115
41 117
41 126
41 132
41 140
42 44
42 78
42 97
42 104
42 116
42 118
42 126
42 133
42 141
43 45
43 80
43 96
43 107
43 117
43 119
43 127
43 133
43 142
44 46
44 79
44 98
44 106
44 118
44 120
44 127
44 134
44 143
45 47
45 81
45 97
45 109
45 119
45 121
45 128
45 134
45 144
46 48
46 80
46 99
46 108
46 120
46 122
46 128
46 135
46 145
47 76
47 98
47 111
47 121
47 123
47 129
47 135
47 146
48 81
48 94
48 110
48 112
48 122
48 129
48 130
48 147
49 65
49 74
50 66
50 69
51 70
51 73
52 63
52 66
52 93
52 130
52 137
53 54
53 75
53 84
53 131
53 136
54 68
54 83
54 131
54 139
55 56
55 65
55 86
55 132
55 138
56 70
56 85
56 132
56 141
57 58
57 67
57 88
57 133
57 140
58 72
58 87
58 133
58 143
59 60
59 69
59 90
59 134
59 142
60 74
60 89
60 134
60 145
61 62
61 71
61 92
61 135
61 144
62 64
62 91
62 135
62 147
63 73
63 82
63 130
63 146
64 99
64 101
64 147
64 148
65 95
65 100
65 138
65 149
66 94
66 103
66 137
66 150
67 96
67 102
67 140
67 151
68 95
68 105
68 139
68 152
69 97
69 104
69 142
69 153
70 96
70 107
70 141
70 154
71 98
71 106
71 144
71 155
72 97
72 109
72 143
72 156
73 99
73 108
73 146
73 157
74 98
74 111
74 145
74 158
75 94
75 110
75 136
75 159
76 83
76 92
76 124
76 129
76 148
76 159
77 82
77 85
77 124
77 125
77 149
77 150
78 84
78 87
78 125
78 126
78 151
78 152
79 86
79 89
79 126
79 127
79 153
79 154
80 88
80 91
80 127
80 128
80 155
80 156
81 90
81 93
81 128
81 129
81 157
81 158
82 123
82 137
82 160
83 114
83 136
83 161
84 113
84 139
84 162
85 116
85 138
85 163
86 115
86 141
86 164
87 118
87 140
87 165
88 117
88 143
88 166
89 120
89 142
89 167
90 119
90 145
90 168
91 122
91 144
91 169
92 121
92 147
92 170
93 112
93 146
93 171
94 102
94 111
94 130
94 131
94 148
94 149
94 160
94 161
95 101
95 104
95 131
95 132
95 150
95 151
95 162
95 163
96 103
96 106
96 132
96 133
96 152
96 153
96 164
96 165
97 105
97 108
97 133
97 134
97 154
97 155
97 166
97 167
98 107
98 110
98 134
98 135
98 156
98 157
98 168
98 169
99 100
99 109
99 130
99 135
99 158
99 159
99 170
99 171
100 113
100 159
100 160
101 112
101 150
101 161
102 115
102 149
102 162
103 114
103 152
103 163
104 117
104 151
104 164
105 116
105 154
105 165
106 119
106 153
106 166
107 118
107 156
107 167
108 121
108 155
108 168
109 120
109 158
109 169
110 123
110 157
110 170
111 122
111 148
111 171
112 123
112 137
112 147
112 161
113 114
113 136
113 138
113 160
114 137
114 139
114 163
115 116
115 138
115 140
115 162
116 139
116 141
116 165
117 118
117 140
117 142
117 164
118 141
118 143
118 167
119 120
119 142
119 144
119 166
120 143
120 145
120 169
121 122
121 144
121 146
121 168
122 145
122 147
122 171
123 136
123 146
123 170
124 130
124 131
125 131
125 132
126 132
126 133
127 133
127 134
128 134
128 135
129 130
129 135
130 160
130 171
131 161
131 162
132 163
132 164
133 165
133 166
134 167
134 168
135 169
135 170
136 159
136 161
137 150
137 160
138 149
138 163
139 152
139 162
140 151
140 165
141 154
141 164
142 153
142 167
143 156
143 166
144 155
144 169
145 158
145 168
146 157
146 171
147 148
147 170
148 159
148 161
149 150
149 160
150 163
151 152
151 162
152 165
153 154
153 164
154 167
155 156
155 166
156 169
157 158
157 168
158 171
159 170
