0 77
0 78
0 79
0 80
0 81
0 82
0 83
0 84
0 85
0 86
0 87
0 88
0 89
0 90
0 91
0 92
0 93
0 94
0 95
0 96
0 97
0 98
0 99
0 100
0 101
0 102
0 103
0 104
0 105
0 106
1 73
1 75
1 87
1 103
1 108
1 112
1 113
1 124
2 74
2 76
2 90
2 106
2 107
2 109
2 114
2 115
2 124
3 78
3 92
3 116
3 125
4 70
4 71
4 75
4 83
4 97
4 108
4 110
4 116
4 118
4 126
4 127
5 72
5 76
5 86
5 100
5 109
5 111
5 117
5 119
5 127
6 88
6 102
6 118
6 120
6 128
6 129
7 91
7 105
7 119
7 121
7 129
7 130
8 69
8 71
8 73
8 77
8 93
8 110
8 112
8 120
8 131
9 72
9 74
9 80
9 96
9 107
9 111
9 121
9 122
9 131
9 132
10 82
10 98
10 113
10 123
11 52
11 57
11 59
11 89
11 103
11 127
11 130
11 140
12 43
12 44
12 53
12 55
12 76
12 115
12 122
12 133
13 44
13 45
13 54
13 56
13 73
13 113
13 116
13 136
14 32
14 49
14 50
14 51
14 55
14 72
14 115
14 119
14 137
15 32
15 33
15 52
15 56
15 75
15 116
15 120
15 140
16 37
16 38
16 51
16 53
16 74
16 119
16 122
16 141
17 38
17 39
17 52
17 54
17 71
17 113
17 120
17 144
18 41
18 44
18 61
18 66
18 70
18 85
18 103
18 108
18 135
18 144
18 146
19 42
19 45
19 62
19 87
19 104
19 112
20 43
20 46
20 67
20 89
20 106
20 109
21 44
21 47
21 50
21 63
21 68
21 78
21 90
21 107
21 134
21 137
21 147
22 32
22 47
22 58
22 65
22 69
22 83
22 95
22 110
22 136
22 139
22 150
23 33
23 48
23 66
23 84
23 97
23 108
24 34
24 49
24 59
24 86
24 99
24 111
24 151
25 32
25 35
25 60
25 67
25 88
25 100
25 109
25 138
25 141
25 152
26 33
26 36
26 68
26 89
26 102
26 153
27 34
27 37
27 61
27 91
27 104
27 154
28 35
28 38
28 57
28 62
28 93
28 105
28 112
28 140
28 143
28 155
29 36
29 39
29 58
29 77
29 94
29 110
29 156
30 37
30 40
30 63
30 79
30 96
30 107
31 38
31 41
31 59
31 64
31 80
31 98
31 111
31 133
31 142
31 157
32 38
32 44
32 60
32 65
32 72
32 75
32 83
32 100
32 124
32 131
32 134
32 143
32 146
32 157
32 159
32 163
32 164
32 175
33 39
33 45
33 66
33 84
33 102
33 158
33 164
34 40
34 46
34 61
34 76
34 86
34 104
34 132
34 145
34 165
35 41
35 47
35 62
35 67
35 88
35 105
35 123
35 125
35 133
35 136
35 146
35 147
35 165
35 166
36 42
36 48
36 68
36 73
36 77
36 89
36 126
36 148
36 166
37 43
37 49
37 63
37 79
37 91
37 149
37 167
38 44
38 57
38 64
38 71
38 74
38 80
38 93
38 124
38 127
38 135
38 138
38 147
38 150
38 160
38 167
38 168
39 45
39 58
39 82
39 94
39 128
39 148
39 168
40 46
40 65
40 72
40 84
40 96
40 149
40 151
40 169
41 47
41 59
41 66
41 85
41 98
41 125
41 129
41 137
41 140
41 150
41 152
41 169
41 170
42 48
42 60
42 75
42 87
42 99
42 126
42 153
42 170
43 49
43 67
43 89
43 101
43 130
43 151
43 154
43 171
44 61
44 68
44 73
44 76
44 90
44 103
44 127
44 131
44 139
44 142
44 152
44 155
44 161
44 162
44 171
44 172
45 62
45 92
45 104
45 128
45 153
45 156
45 172
46 57
46 74
46 94
46 106
46 132
46 154
46 173
47 58
47 63
47 78
47 95
47 123
47 129
47 141
47 144
47 155
47 157
47 173
47 174
48 64
48 71
48 79
48 97
48 156
48 158
48 174
49 59
49 81
49 99
49 130
49 145
49 175
50 51
50 107
50 163
51 115
51 122
51 145
51 147
51 159
52 113
52 116
52 146
52 148
53 115
53 119
53 149
53 152
53 160
54 116
54 120
54 150
54 153
54 161
55 119
55 122
55 154
55 157
55 162
56 113
56 120
56 155
56 158
56 163
56 176
57 84
57 103
57 135
57 165
57 175
58 85
58 104
58 144
58 164
58 166
59 78
59 89
59 137
59 165
59 167
60 79
60 90
60 134
60 166
60 168
61 83
61 94
61 139
61 167
61 169
62 84
62 95
62 136
62 168
62 170
63 88
63 99
63 141
63 169
63 171
64 89
64 100
64 138
64 170
64 172
65 93
65 104
65 143
65 171
65 173
66 94
66 105
66 140
66 172
66 174
67 79
67 98
67 133
67 173
67 175
68 80
68 99
68 142
68 164
68 174
69 123
69 136
69 159
70 129
70 144
70 162
71 108
71 112
71 144
72 107
72 109
72 137
73 108
73 110
73 136
74 109
74 111
74 141
75 110
75 112
75 140
75 176
76 107
76 111
76 133
77 82
77 102
78 83
78 103
78 157
78 165
79 84
79 104
79 158
79 166
79 175
80 85
80 105
80 122
80 147
80 164
81 86
81 106
81 115
81 145
82 87
82 113
82 148
83 88
83 116
83 146
83 167
84 89
84 149
84 165
84 168
85 90
85 114
85 150
85 166
86 91
86 117
87 92
88 93
88 118
88 147
88 169
89 94
89 148
89 151
89 167
89 170
89 177
90 95
90 115
90 152
90 168
90 177
91 96
91 119
91 149
92 97
92 116
92 153
93 98
93 120
93 150
93 171
94 99
94 154
94 169
94 172
95 100
95 117
95 155
95 170
96 101
96 121
96 151
97 102
97 118
97 156
98 103
98 152
98 173
99 104
99 153
99 171
99 174
100 105
100 119
100 157
100 172
101 106
101 122
101 154
102 120
102 158
103 113
103 155
103 175
104 145
104 156
104 164
104 173
105 121
105 146
105 174
106 114
107 163
108 160
109 177
110 162
111 161
112 159
112 176
113 124
114 123
115 124
116 127
117 125
118 126
118 129
119 127
119 130
119 178
120 128
120 131
121 129
121 132
122 131
122 179
123 134
123 143
123 179
124 133
124 136
124 159
125 135
125 138
126 177
127 137
127 140
127 160
127 161
127 177
129 139
129 142
129 178
131 141
131 144
131 162
131 163
133 157
133 165
133 179
134 147
134 164
135 146
135 167
136 150
136 166
137 147
137 169
137 177
138 152
138 168
139 150
139 171
140 155
140 170
141 152
141 173
141 178
142 157
142 172
143 155
143 175
144 146
144 174
145 165
146 166
146 175
147 165
147 168
148 166
149 169
150 167
150 170
151 171
152 169
152 172
152 178
153 170
154 173
155 171
155 174
155 176
156 172
157 164
157 173
157 179
158 174
159 163
159 179
161 162
162 178
163 176
168 177
170 177
