0 97
0 100
0 101
0 106
0 107
0 110
0 111
0 114
0 115
1 96
1 98
1 99
1 108
1 109
1 112
1 113
1 116
1 117
2 84
2 89
2 90
2 103
2 105
2 113
2 118
2 123
2 129
2 130
2 134
3 85
3 86
3 91
3 102
3 104
3 112
3 119
3 124
3 126
3 131
3 135
4 82
4 86
4 87
4 103
4 105
4 111
4 120
4 125
4 127
4 132
4 136
5 83
5 88
5 89
5 102
5 104
5 110
5 121
5 122
5 128
5 133
5 137
6 76
6 80
6 83
6 93
6 115
6 119
6 133
6 138
6 142
7 77
7 81
7 82
7 92
7 114
7 118
7 132
7 139
7 143
8 74
8 78
8 85
8 95
8 117
8 121
8 131
8 140
8 144
9 75
9 79
9 84
9 94
9 116
9 120
9 130
9 141
9 145
10 67
10 68
10 71
10 72
10 79
10 80
10 96
10 97
10 114
10 117
10 123
10 128
10 142
10 145
10 150
10 153
10 162
10 165
11 66
11 69
11 70
11 73
11 78
11 81
11 96
11 97
11 115
11 116
11 124
11 127
11 143
11 144
11 151
11 152
11 163
11 164
12 64
12 75
12 103
12 115
12 141
12 146
12 158
12 162
13 65
13 74
13 102
13 114
13 140
13 147
13 159
13 163
14 62
14 77
14 105
14 117
14 139
14 148
14 160
14 164
15 63
15 76
15 104
15 116
15 138
15 149
15 161
15 165
16 68
16 93
16 101
16 111
16 147
16 155
16 166
17 69
17 92
17 100
17 110
17 146
17 154
17 167
18 66
18 95
18 99
18 113
18 149
18 157
18 168
19 67
19 94
19 98
19 112
19 148
19 156
19 169
20 64
20 73
20 77
20 84
20 107
20 134
20 143
20 158
21 65
21 72
21 76
21 85
21 106
21 135
21 142
21 159
22 62
22 71
22 75
22 82
22 109
22 136
22 145
22 160
23 63
23 70
23 74
23 83
23 108
23 137
23 144
23 161
24 48
24 56
24 60
24 65
24 73
24 83
24 95
24 99
24 122
24 138
24 170
24 174
25 49
25 57
25 61
25 64
25 72
25 82
25 94
25 98
25 125
25 139
25 171
25 175
26 46
26 54
26 58
26 63
26 71
26 85
26 93
26 101
26 126
26 140
26 172
26 176
27 47
27 55
27 59
27 62
27 70
27 84
27 92
27 100
27 129
27 141
27 173
27 177
28 43
28 52
28 59
28 105
28 118
28 153
28 158
28 166
28 178
29 42
29 53
29 58
29 104
29 119
29 152
29 159
29 167
29 179
30 45
30 50
30 61
30 103
30 120
30 151
30 160
30 168
30 180
31 44
31 51
31 60
31 102
31 121
31 150
31 161
31 169
31 181
32 40
32 43
32 48
32 71
32 81
32 115
32 154
32 165
32 174
32 178
33 41
33 42
33 49
33 70
33 80
33 114
33 155
33 164
33 175
33 179
34 38
34 45
34 46
34 73
34 79
34 117
34 156
34 163
34 176
34 180
35 39
35 44
35 47
35 72
35 78
35 116
35 157
35 162
35 177
35 181
36 37
36 40
36 41
36 52
36 53
36 60
36 61
36 68
36 69
36 86
36 89
36 106
36 107
36 134
36 135
36 150
36 151
36 166
36 167
36 174
36 175
36 182
36 183
36 186
37 38
37 39
37 50
37 51
37 58
37 59
37 66
37 67
37 86
37 89
37 108
37 109
37 136
37 137
37 152
37 153
37 168
37 169
37 176
37 177
37 184
37 185
37 187
38 44
38 67
38 73
38 75
38 109
38 124
38 162
38 182
39 45
39 66
39 72
39 74
39 108
39 123
39 163
39 183
40 42
40 69
40 71
40 77
40 107
40 128
40 164
40 184
41 43
41 68
41 70
41 76
41 106
41 127
41 165
41 185
42 114
42 128
42 166
42 188
43 115
43 127
43 167
43 189
44 116
44 124
44 168
44 190
45 117
45 123
45 169
45 191
46 53
46 85
46 93
46 138
46 159
46 183
47 52
47 84
47 92
47 139
47 158
47 182
48 51
48 83
48 95
48 140
48 161
48 185
49 50
49 82
49 94
49 141
49 160
49 184
50 59
50 103
50 141
50 155
51 58
51 102
51 140
51 154
52 61
52 105
52 139
52 157
53 60
53 104
53 138
53 156
54 65
54 71
54 88
54 101
54 147
54 170
55 64
55 70
55 87
55 100
55 146
55 171
56 63
56 73
56 91
56 99
56 149
56 172
57 62
57 72
57 90
57 98
57 148
57 173
58 63
58 91
58 119
58 137
58 154
58 188
59 62
59 90
59 118
59 136
59 155
59 189
60 65
60 88
60 121
60 135
60 156
60 190
61 64
61 87
61 120
61 134
61 157
61 191
62 71
62 77
62 109
62 129
62 171
62 178
62 192
63 70
63 76
63 108
63 126
63 170
63 179
63 193
64 73
64 75
64 107
64 125
64 173
64 180
64 194
65 72
65 74
65 106
65 122
65 172
65 181
65 195
66 81
66 96
66 113
66 118
66 153
66 174
66 191
67 80
67 96
67 112
67 119
67 152
67 175
67 190
68 79
68 97
68 111
68 120
68 151
68 176
68 189
69 78
69 97
69 110
69 121
69 150
69 177
69 188
70 73
70 79
70 101
70 115
70 141
70 155
70 165
70 170
70 182
70 188
70 192
70 196
71 72
71 78
71 100
71 114
71 140
71 154
71 164
71 171
71 183
71 189
71 193
71 197
72 81
72 99
72 117
72 139
72 157
72 163
72 172
72 184
72 190
72 194
72 198
73 80
73 98
73 116
73 138
73 156
73 162
73 173
73 185
73 191
73 195
73 199
74 137
74 181
74 196
75 136
75 180
75 197
76 135
76 179
76 198
77 134
77 178
77 199
78 85
78 124
78 162
78 183
78 196
79 84
79 123
79 163
79 182
79 197
80 83
80 128
80 164
80 185
80 198
81 82
81 127
81 165
81 184
81 199
82 114
82 145
83 115
83 144
84 116
84 143
85 117
85 142
86 102
86 105
86 123
86 128
86 166
86 169
87 103
87 129
87 171
87 186
88 102
88 126
88 170
88 186
89 103
89 104
89 124
89 127
89 167
89 168
90 105
90 125
90 173
90 187
91 104
91 122
91 172
91 187
92 118
92 146
92 196
93 119
93 147
93 197
94 120
94 148
94 198
95 121
95 149
95 199
96 98
96 99
96 150
96 151
96 192
96 193
96 200
97 100
97 101
97 152
97 153
97 194
97 195
97 201
98 191
98 192
99 190
99 193
100 189
100 194
101 188
101 195
102 122
102 124
102 202
103 123
103 125
103 203
104 126
104 128
104 204
105 127
105 129
105 205
106 114
106 153
106 174
106 196
107 115
107 152
107 175
107 197
108 116
108 151
108 176
108 198
109 117
109 150
109 177
109 199
110 115
110 133
110 186
110 188
110 202
111 114
111 132
111 186
111 189
111 203
112 117
112 131
112 187
112 190
112 204
113 116
113 130
113 187
113 191
113 205
114 159
114 175
114 196
114 200
114 202
114 206
115 158
115 174
115 197
115 200
115 203
115 207
116 161
116 177
116 198
116 201
116 204
116 208
117 160
117 176
117 199
117 201
117 205
117 209
118 134
118 143
118 167
118 206
119 135
119 142
119 166
119 207
120 136
120 145
120 169
120 208
121 137
121 144
121 168
121 209
123 130
123 162
123 183
123 206
124 131
124 163
124 182
124 207
127 132
127 164
127 185
127 208
128 133
128 165
128 184
128 209
130 145
131 144
132 143
133 142
134 191
135 190
136 189
137 188
138 174
139 175
140 176
141 177
146 196
147 197
148 198
149 199
150 154
150 165
150 182
150 202
150 210
151 155
151 164
151 183
151 203
151 211
152 156
152 163
152 184
152 204
152 212
153 157
153 162
153 185
153 205
153 213
154 167
154 193
154 202
154 207
155 166
155 192
155 203
155 206
156 169
156 195
156 204
156 209
157 168
157 194
157 205
157 208
158 162
158 178
159 163
159 179
160 164
160 180
161 165
161 181
162 196
163 197
164 198
165 199
166 186
166 188
166 206
166 210
167 186
167 189
167 207
167 211
168 187
168 190
168 208
168 212
169 187
169 191
169 209
169 213
170 193
171 192
172 195
173 194
174 183
174 200
175 182
175 200
176 185
176 201
177 184
177 201
178 210
179 211
180 212
181 213
182 196
182 207
183 197
183 206
184 198
184 209
185 199
185 208
186 202
186 203
187 204
187 205
188 196
188 210
189 197
189 211
190 198
190 212
191 199
191 213
192 200
192 210
193 200
193 211
194 201
194 212
195 201
195 213
196 206
197 207
198 208
199 209
200 202
200 203
201 204
201 205
202 210
203 211
204 212
205 213
