0 104
0 105
0 106
0 107
0 108
0 109
0 110
0 111
0 112
0 113
0 114
0 115
0 116
0 117
0 118
0 119
0 120
0 121
0 122
0 123
0 124
0 125
0 126
0 127
0 128
0 129
0 130
1 87
1 96
1 100
1 112
1 126
1 133
1 137
1 139
1 148
1 149
2 87
2 91
2 98
2 102
2 116
2 131
2 139
2 141
2 150
3 84
3 85
3 99
3 103
3 105
3 118
3 132
3 134
3 140
3 142
3 151
4 88
4 92
4 100
4 108
4 121
4 133
4 135
4 141
4 143
4 151
5 93
5 101
5 110
5 122
5 142
5 144
5 152
6 88
6 89
6 94
6 102
6 125
6 143
6 145
6 152
7 80
7 81
7 95
7 103
7 114
7 127
7 134
7 136
7 144
7 146
7 153
8 86
8 92
8 96
8 117
8 130
8 135
8 137
8 145
8 147
8 153
9 93
9 97
9 104
9 119
9 146
9 154
10 86
10 90
10 94
10 98
10 107
10 131
10 147
10 148
10 154
11 82
11 83
11 95
11 99
11 109
11 123
11 132
11 136
11 138
11 149
12 76
12 83
12 91
12 114
12 129
12 149
12 156
13 75
13 77
13 115
13 130
13 151
13 157
13 158
14 69
14 78
14 85
14 89
14 111
14 123
14 151
14 162
15 70
15 79
15 112
15 124
15 153
15 163
15 164
16 71
16 73
16 81
16 90
16 105
16 120
16 153
16 168
17 64
17 72
17 74
17 106
17 121
17 149
17 169
17 170
18 50
18 51
18 84
18 95
18 101
18 140
18 156
18 171
19 52
19 53
19 61
19 65
19 67
19 96
19 102
19 141
19 148
19 155
20 53
20 54
20 66
20 68
20 83
20 97
20 103
20 138
20 142
20 160
20 173
20 174
21 55
21 56
21 92
21 98
21 139
21 143
21 158
22 56
22 57
22 80
22 93
22 99
22 140
22 144
22 159
22 162
23 43
23 58
23 59
23 62
23 67
23 94
23 100
23 141
23 145
23 161
24 43
24 44
24 63
24 68
24 85
24 95
24 101
24 142
24 146
24 166
24 175
24 176
25 45
25 64
25 96
25 102
25 143
25 147
25 164
26 45
26 46
26 82
26 97
26 103
26 144
26 165
26 168
27 47
27 48
27 60
27 62
27 65
27 92
27 98
27 145
27 148
27 167
28 48
28 63
28 66
28 81
28 93
28 99
28 138
28 146
28 172
28 177
28 178
29 49
29 50
29 64
29 94
29 100
29 139
29 147
29 170
30 49
30 52
30 60
30 76
30 111
30 126
30 133
30 179
31 50
31 53
31 73
31 77
31 112
31 128
31 137
31 158
31 172
31 173
31 180
32 53
32 56
32 79
32 90
32 105
32 116
32 131
32 134
32 156
32 161
32 181
33 54
33 57
33 75
33 106
33 118
33 132
33 157
33 174
33 182
34 55
34 58
34 61
34 69
34 108
34 120
34 135
34 183
35 43
35 56
35 70
35 76
35 110
35 121
35 133
35 160
35 164
35 175
35 184
36 44
36 57
36 77
36 111
36 122
36 165
37 43
37 45
37 72
37 78
37 91
37 114
37 125
37 136
37 162
37 167
37 185
38 44
38 46
38 79
38 115
38 127
38 134
38 163
38 176
38 186
39 47
39 59
39 73
39 117
39 129
39 137
39 187
40 45
40 48
40 69
40 74
40 119
40 130
40 135
40 166
40 170
40 177
40 188
41 48
41 50
41 71
41 75
41 89
41 107
41 123
41 132
41 155
41 168
41 190
42 51
42 72
42 109
42 124
42 136
42 169
42 178
42 191
43 48
43 53
43 72
43 76
43 94
43 101
43 110
43 125
43 150
43 154
43 156
43 170
43 178
43 180
43 190
43 192
44 54
44 77
44 85
44 95
44 111
44 127
44 157
44 171
44 173
44 191
44 192
45 50
45 56
45 74
45 78
45 82
45 96
45 103
45 114
45 130
45 149
45 151
45 155
45 160
45 180
45 181
45 193
45 194
46 51
46 57
46 79
46 97
46 104
46 115
46 182
46 194
47 52
47 58
47 92
47 106
47 117
47 183
48 53
48 69
48 75
48 93
48 98
48 107
48 119
48 150
48 152
48 158
48 162
48 174
48 181
48 184
48 195
49 55
49 76
49 94
49 111
49 183
49 196
50 56
50 71
50 77
50 84
50 95
50 100
50 112
50 123
50 151
50 153
50 161
50 166
50 184
50 185
50 196
50 197
51 57
51 72
51 101
51 113
51 124
51 186
51 197
52 58
52 78
52 96
52 115
52 126
52 187
52 198
53 73
53 79
53 97
53 102
53 116
53 128
53 152
53 154
53 164
53 168
53 176
53 185
53 188
53 198
53 199
54 74
54 83
54 103
54 118
54 129
54 165
54 169
54 177
54 186
54 189
54 199
55 69
55 98
55 120
55 187
55 200
56 70
56 80
56 92
56 99
56 105
56 121
56 149
56 153
56 167
56 172
56 188
56 190
56 200
56 201
57 75
57 93
57 106
57 122
57 189
57 191
57 201
58 71
58 100
58 108
58 124
58 179
59 67
59 86
59 137
59 192
60 62
60 87
60 133
60 195
61 65
61 88
61 135
61 199
62 141
62 148
62 179
62 181
62 202
63 82
63 138
63 142
63 180
63 182
64 139
64 143
64 184
65 141
65 145
65 183
65 185
65 203
66 84
66 142
66 146
66 184
66 186
67 145
67 148
67 187
67 190
67 204
68 80
68 138
68 146
68 188
68 191
69 111
69 128
69 158
69 193
70 112
70 129
70 159
70 172
70 192
70 194
70 202
70 205
71 105
71 115
71 161
71 193
72 106
72 116
72 156
72 194
72 195
72 206
73 110
73 120
73 164
73 196
74 111
74 121
74 160
74 165
74 195
74 197
74 203
74 207
75 115
75 125
75 162
75 197
75 199
76 119
76 129
76 170
76 198
76 200
77 120
77 130
77 166
77 171
77 199
77 201
77 204
78 106
78 123
78 155
78 200
79 107
79 124
79 168
79 192
79 201
79 208
80 95
80 191
81 103
81 181
82 99
82 182
83 95
83 185
84 103
84 186
85 99
85 190
86 90
86 107
86 117
87 91
87 116
87 126
88 89
88 108
88 125
89 151
89 155
90 153
90 161
91 149
91 167
92 133
92 137
92 158
92 202
93 159
93 172
93 174
94 131
94 161
95 132
95 134
95 156
95 173
96 133
96 135
96 164
96 203
97 160
97 165
97 176
98 167
99 134
99 136
99 162
99 175
100 135
100 137
100 170
100 204
101 166
101 171
101 178
102 131
102 155
103 132
103 136
103 168
103 177
104 109
104 127
104 205
104 208
105 110
105 128
105 140
105 190
105 193
106 111
106 129
106 191
106 194
106 212
107 112
107 130
107 148
107 181
107 192
107 212
108 141
108 179
108 209
109 113
109 138
109 182
109 205
109 206
110 114
110 142
110 180
110 213
111 115
111 183
111 193
111 195
111 213
112 116
112 139
112 184
112 194
112 209
113 118
113 140
113 206
113 207
114 119
114 144
114 181
114 196
115 120
115 182
115 197
115 214
116 121
116 141
116 185
116 195
116 214
117 145
117 183
117 210
118 122
118 142
118 186
118 207
119 123
119 146
119 184
119 198
119 215
120 124
120 187
120 196
120 199
120 215
121 125
121 143
121 188
121 197
121 210
122 127
122 144
122 189
123 128
123 185
123 200
124 129
124 186
124 198
124 201
124 216
125 130
125 145
125 190
125 199
125 216
126 148
126 187
126 211
127 146
127 191
127 208
128 138
128 188
128 217
129 179
129 189
129 192
129 200
129 217
130 147
130 180
130 201
130 211
131 212
132 174
133 202
134 176
135 203
136 178
137 204
138 150
138 173
138 178
139 149
139 209
139 218
140 151
141 150
141 209
142 152
142 174
142 175
143 151
143 210
143 219
144 153
145 152
145 210
146 154
146 176
146 177
147 153
147 211
147 220
148 154
148 211
149 156
149 170
149 205
150 155
150 160
150 206
150 212
150 213
150 218
151 158
151 162
151 207
152 161
152 166
152 214
152 215
152 219
153 164
153 168
154 167
154 172
154 208
154 216
154 217
154 220
155 190
155 193
155 212
156 181
156 192
157 182
157 212
158 180
158 218
159 195
160 184
160 194
160 213
161 181
161 196
161 214
162 185
162 195
163 186
163 214
164 184
164 198
164 219
165 199
166 188
166 197
166 215
167 185
167 200
167 216
168 190
168 199
169 191
169 216
170 188
170 220
171 189
171 192
172 180
172 201
172 217
173 213
175 215
177 217
179 193
179 202
180 194
180 218
181 193
181 195
182 194
183 196
183 203
184 197
184 219
185 196
185 199
186 197
187 200
187 204
188 198
188 201
188 220
189 199
190 192
190 200
191 201
192 208
192 212
193 213
194 205
194 212
195 206
195 214
196 215
197 207
197 214
198 215
199 216
200 217
201 216
202 209
203 210
204 211
209 218
210 219
211 220
213 218
215 219
217 220
