0 101
0 104
0 105
0 110
0 111
0 114
0 115
0 118
0 119
1 100
1 102
1 103
1 112
1 113
1 116
1 117
1 120
1 121
2 84
2 89
2 90
2 107
2 109
2 117
2 122
2 127
2 133
2 134
2 138
3 85
3 86
3 91
3 106
3 108
3 116
3 123
3 128
3 130
3 135
3 139
4 82
4 86
4 87
4 107
4 109
4 115
4 124
4 129
4 131
4 136
4 140
5 83
5 88
5 89
5 106
5 108
5 114
5 125
5 126
5 132
5 137
5 141
6 76
6 80
6 83
6 97
6 119
6 123
6 137
6 142
6 146
7 77
7 81
7 82
7 96
7 118
7 122
7 136
7 143
7 147
8 74
8 78
8 85
8 99
8 121
8 125
8 135
8 144
8 148
9 75
9 79
9 84
9 98
9 120
9 124
9 134
9 145
9 149
10 67
10 68
10 71
10 72
10 79
10 80
10 93
10 94
10 100
10 101
10 118
10 121
10 127
10 132
10 146
10 149
10 154
10 157
10 166
10 169
11 66
11 69
11 70
11 73
11 78
11 81
11 92
11 95
11 100
11 101
11 119
11 120
11 128
11 131
11 147
11 148
11 155
11 156
11 167
11 168
12 64
12 75
12 95
12 107
12 119
12 145
12 150
12 162
12 166
13 65
13 74
13 94
13 106
13 118
13 144
13 151
13 163
13 167
14 62
14 77
14 93
14 109
14 121
14 143
14 152
14 164
14 168
15 63
15 76
15 92
15 108
15 120
15 142
15 153
15 165
15 169
16 68
16 97
16 105
16 115
16 151
16 159
16 170
17 69
17 96
17 104
17 114
17 150
17 158
17 171
18 66
18 99
18 103
18 117
18 153
18 161
18 172
19 67
19 98
19 102
19 116
19 152
19 160
19 173
20 64
20 73
20 77
20 84
20 111
20 138
20 147
20 162
21 65
21 72
21 76
21 85
21 110
21 139
21 146
21 163
22 62
22 71
22 75
22 82
22 113
22 140
22 149
22 164
23 63
23 70
23 74
23 83
23 112
23 141
23 148
23 165
24 48
24 56
24 60
24 65
24 73
24 83
24 99
24 103
24 126
24 142
24 174
24 178
25 49
25 57
25 61
25 64
25 72
25 82
25 98
25 102
25 129
25 143
25 175
25 179
26 46
26 54
26 58
26 63
26 71
26 85
26 97
26 105
26 130
26 144
26 176
26 180
27 47
27 55
27 59
27 62
27 70
27 84
27 96
27 104
27 133
27 145
27 177
27 181
28 43
28 52
28 59
28 93
28 109
28 122
28 157
28 162
28 170
28 182
29 42
29 53
29 58
29 92
29 108
29 123
29 156
29 163
29 171
29 183
30 45
30 50
30 61
30 95
30 107
30 124
30 155
30 164
30 172
30 184
31 44
31 51
31 60
31 94
31 106
31 125
31 154
31 165
31 173
31 185
32 40
32 43
32 48
32 71
32 81
32 119
32 158
32 169
32 178
32 182
32 186
33 41
33 42
33 49
33 70
33 80
33 118
33 159
33 168
33 179
33 183
33 187
34 38
34 45
34 46
34 73
34 79
34 121
34 160
34 167
34 180
34 184
34 188
35 39
35 44
35 47
35 72
35 78
35 120
35 161
35 166
35 181
35 185
35 189
36 37
36 40
36 41
36 52
36 53
36 60
36 61
36 68
36 69
36 86
36 89
36 110
36 111
36 138
36 139
36 154
36 155
36 170
36 171
36 178
36 179
36 190
36 191
36 194
37 38
37 39
37 50
37 51
37 58
37 59
37 66
37 67
37 86
37 89
37 112
37 113
37 140
37 141
37 156
37 157
37 172
37 173
37 180
37 181
37 192
37 193
37 195
38 44
38 67
38 73
38 75
38 113
38 128
38 166
38 190
39 45
39 66
39 72
39 74
39 112
39 127
39 167
39 191
40 42
40 69
40 71
40 77
40 111
40 132
40 168
40 192
41 43
41 68
41 70
41 76
41 110
41 131
41 169
41 193
42 118
42 132
42 170
42 196
43 119
43 131
43 171
43 197
44 120
44 128
44 172
44 198
45 121
45 127
45 173
45 199
46 53
46 85
46 97
46 142
46 163
46 191
47 52
47 84
47 96
47 143
47 162
47 190
48 51
48 83
48 99
48 144
48 165
48 193
49 50
49 82
49 98
49 145
49 164
49 192
50 59
50 107
50 145
50 159
51 58
51 106
51 144
51 158
52 61
52 109
52 143
52 161
53 60
53 108
53 142
53 160
54 65
54 71
54 88
54 105
54 151
54 174
55 64
55 70
55 87
55 104
55 150
55 175
56 63
56 73
56 91
56 103
56 153
56 176
57 62
57 72
57 90
57 102
57 152
57 177
58 63
58 91
58 123
58 141
58 158
58 196
59 62
59 90
59 122
59 140
59 159
59 197
60 65
60 88
60 125
60 139
60 160
60 198
61 64
61 87
61 124
61 138
61 161
61 199
62 71
62 77
62 113
62 133
62 175
62 182
62 200
63 70
63 76
63 112
63 130
63 174
63 183
63 201
64 73
64 75
64 111
64 129
64 177
64 184
64 202
65 72
65 74
65 110
65 126
65 176
65 185
65 203
66 81
66 100
66 117
66 122
66 157
66 178
66 199
67 80
67 100
67 116
67 123
67 156
67 179
67 198
68 79
68 101
68 115
68 124
68 155
68 180
68 197
69 78
69 101
69 114
69 125
69 154
69 181
69 196
70 73
70 79
70 105
70 119
70 145
70 159
70 169
70 174
70 190
70 196
70 200
70 204
71 72
71 78
71 104
71 118
71 144
71 158
71 168
71 175
71 191
71 197
71 201
71 205
72 81
72 103
72 121
72 143
72 161
72 167
72 176
72 192
72 198
72 202
72 206
73 80
73 102
73 120
73 142
73 160
73 166
73 177
73 193
73 199
73 203
73 207
74 141
74 185
74 204
75 140
75 184
75 205
76 139
76 183
76 206
77 138
77 182
77 207
78 85
78 128
78 166
78 191
78 204
79 84
79 127
79 167
79 190
79 205
80 83
80 132
80 168
80 193
80 206
81 82
81 131
81 169
81 192
81 207
82 118
82 149
82 186
83 119
83 148
83 187
84 120
84 147
84 188
85 121
85 146
85 189
86 106
86 109
86 127
86 132
86 170
86 173
87 107
87 133
87 175
87 194
88 106
88 130
88 174
88 194
89 107
89 108
89 128
89 131
89 171
89 172
90 109
90 129
90 177
90 195
91 108
91 126
91 176
91 195
92 142
92 163
92 209
93 143
93 162
93 208
94 144
94 165
94 211
95 145
95 164
95 210
96 122
96 150
96 204
97 123
97 151
97 205
98 124
98 152
98 206
99 125
99 153
99 207
100 102
100 103
100 154
100 155
100 200
100 201
100 212
101 104
101 105
101 156
101 157
101 202
101 203
101 213
102 199
102 200
103 198
103 201
104 197
104 202
105 196
105 203
106 126
106 128
106 209
106 214
107 127
107 129
107 208
107 215
108 130
108 132
108 211
108 216
109 131
109 133
109 210
109 217
110 118
110 157
110 178
110 204
111 119
111 156
111 179
111 205
112 120
112 155
112 180
112 206
113 121
113 154
113 181
113 207
114 119
114 137
114 194
114 196
114 214
115 118
115 136
115 194
115 197
115 215
116 121
116 135
116 195
116 198
116 216
117 120
117 134
117 195
117 199
117 217
118 163
118 179
118 204
118 212
118 214
118 218
119 162
119 178
119 205
119 212
119 215
119 219
120 165
120 181
120 206
120 213
120 216
120 220
121 164
121 180
121 207
121 213
121 217
121 221
122 138
122 147
122 171
122 218
123 139
123 146
123 170
123 219
124 140
124 149
124 173
124 220
125 141
125 148
125 172
125 221
127 134
127 166
127 191
127 208
127 218
128 135
128 167
128 190
128 209
128 219
131 136
131 168
131 193
131 210
131 220
132 137
132 169
132 192
132 211
132 221
134 149
135 148
136 147
137 146
138 199
139 198
140 197
141 196
142 178
143 179
144 180
145 181
150 204
151 205
152 206
153 207
154 158
154 169
154 190
154 214
154 222
155 159
155 168
155 191
155 215
155 223
156 160
156 167
156 192
156 216
156 224
157 161
157 166
157 193
157 217
157 225
158 171
158 201
158 214
158 219
159 170
159 200
159 215
159 218
160 173
160 203
160 216
160 221
161 172
161 202
161 217
161 220
162 166
162 182
162 208
163 167
163 183
163 209
164 168
164 184
164 210
165 169
165 185
165 211
166 204
167 205
168 206
169 207
170 194
170 196
170 218
170 222
171 194
171 197
171 219
171 223
172 195
172 198
172 220
172 224
173 195
173 199
173 221
173 225
174 187
174 201
175 186
175 200
176 189
176 203
177 188
177 202
178 191
178 212
179 190
179 212
180 193
180 213
181 192
181 213
182 186
182 222
183 187
183 223
184 188
184 224
185 189
185 225
186 222
187 223
188 224
189 225
190 204
190 219
191 205
191 218
192 206
192 221
193 207
193 220
194 214
194 215
195 216
195 217
196 204
196 222
197 205
197 223
198 206
198 224
199 207
199 225
200 212
200 222
201 212
201 223
202 213
202 224
203 213
203 225
204 218
205 219
206 220
207 221
208 215
209 214
210 217
211 216
212 214
212 215
213 216
213 217
214 222
215 223
216 224
217 225
