0 112
0 113
0 114
0 115
0 116
0 117
0 118
0 119
0 120
0 121
0 122
0 123
0 124
0 125
0 126
0 127
0 128
0 129
0 130
0 131
0 132
0 133
0 134
0 135
0 136
0 137
0 138
1 95
1 104
1 108
1 120
1 134
1 141
1 147
1 149
1 159
1 160
2 105
2 109
2 121
2 136
2 148
2 150
2 161
3 95
3 99
3 106
3 110
3 124
3 139
3 142
3 149
3 151
3 161
4 92
4 93
4 107
4 111
4 113
4 126
4 140
4 143
4 150
4 152
4 162
5 96
5 100
5 108
5 116
5 129
5 141
5 144
5 151
5 153
5 162
6 101
6 109
6 118
6 130
6 152
6 154
6 163
7 96
7 97
7 102
7 110
7 133
7 142
7 145
7 153
7 155
7 163
8 88
8 89
8 103
8 111
8 122
8 135
8 143
8 146
8 154
8 156
8 164
9 94
9 100
9 104
9 125
9 138
9 144
9 147
9 155
9 157
9 164
10 101
10 105
10 112
10 127
10 156
10 158
10 165
11 94
11 98
11 102
11 106
11 115
11 139
11 145
11 157
11 159
11 165
12 90
12 91
12 103
12 107
12 117
12 131
12 140
12 146
12 148
12 158
12 160
13 82
13 84
13 91
13 99
13 122
13 137
13 160
13 167
14 72
14 83
14 85
14 123
14 138
14 162
14 168
14 169
15 76
15 86
15 93
15 97
15 119
15 131
15 162
15 173
16 75
16 77
16 87
16 120
16 132
16 164
16 174
16 175
17 78
17 80
17 89
17 98
17 113
17 128
17 164
17 179
18 69
18 79
18 81
18 114
18 129
18 160
18 180
18 181
19 55
19 56
19 92
19 103
19 109
19 150
19 158
19 167
19 182
20 57
20 58
20 66
20 70
20 73
20 104
20 110
20 151
20 159
20 166
21 58
21 59
21 71
21 74
21 91
21 105
21 111
21 148
21 152
21 171
21 184
21 185
22 60
22 61
22 72
22 75
22 100
22 106
22 149
22 153
22 169
23 61
23 62
23 88
23 101
23 107
23 150
23 154
23 170
23 173
24 46
24 63
24 64
24 67
24 73
24 102
24 108
24 151
24 155
24 172
25 46
25 47
25 68
25 74
25 93
25 103
25 109
25 152
25 156
25 177
25 186
25 187
26 48
26 49
26 69
26 75
26 104
26 110
26 153
26 157
26 175
27 49
27 50
27 90
27 105
27 111
27 154
27 158
27 176
27 179
28 51
28 52
28 65
28 67
28 70
28 100
28 106
28 155
28 159
28 178
29 52
29 53
29 68
29 71
29 89
29 101
29 107
29 148
29 156
29 183
29 188
29 189
30 54
30 55
30 69
30 72
30 102
30 108
30 149
30 157
30 181
31 54
31 57
31 65
31 84
31 119
31 134
31 141
31 190
32 55
32 58
32 80
32 85
32 120
32 136
32 147
32 169
32 183
32 184
32 191
33 56
33 59
33 81
33 121
33 137
33 170
33 192
34 58
34 61
34 82
34 87
34 98
34 113
34 124
34 139
34 143
34 167
34 172
34 193
35 59
35 62
35 83
35 114
35 126
35 140
35 168
35 185
35 194
36 60
36 63
36 66
36 76
36 116
36 128
36 144
36 195
37 46
37 61
37 77
37 84
37 118
37 129
37 141
37 171
37 175
37 186
37 196
38 47
38 62
38 85
38 119
38 130
38 176
38 197
39 46
39 49
39 79
39 86
39 99
39 122
39 133
39 142
39 146
39 173
39 178
39 198
40 47
40 50
40 87
40 123
40 135
40 143
40 174
40 187
40 199
41 48
41 51
41 64
41 80
41 125
41 137
41 147
41 200
42 49
42 52
42 76
42 81
42 127
42 138
42 144
42 177
42 181
42 188
42 201
43 50
43 53
43 77
43 112
43 128
43 182
43 202
44 52
44 55
44 78
44 83
44 97
44 115
44 131
44 140
44 145
44 166
44 179
44 203
45 53
45 56
45 79
45 117
45 132
45 146
45 180
45 189
45 204
46 52
46 58
46 79
46 84
46 102
46 109
46 118
46 133
46 161
46 165
46 167
46 181
46 189
46 191
46 203
46 205
46 216
47 53
47 59
47 85
47 93
47 103
47 119
47 135
47 168
47 182
47 184
47 192
47 204
47 205
48 54
48 60
48 80
48 110
48 137
48 190
48 206
49 55
49 61
49 81
49 86
49 90
49 104
49 111
49 122
49 138
49 160
49 162
49 166
49 171
49 191
49 193
49 206
49 207
50 56
50 62
50 87
50 105
50 112
50 123
50 192
50 194
50 207
51 57
51 63
51 82
51 100
51 114
51 125
51 195
51 208
52 58
52 76
52 83
52 101
52 106
52 115
52 127
52 161
52 163
52 169
52 173
52 185
52 193
52 196
52 208
52 209
53 59
53 77
53 89
53 107
53 117
53 128
53 170
53 174
53 186
53 194
53 197
53 209
54 60
54 84
54 102
54 119
54 195
54 210
55 61
55 78
55 85
55 92
55 103
55 108
55 120
55 131
55 162
55 164
55 172
55 177
55 196
55 198
55 210
55 211
56 62
56 79
56 109
56 121
56 132
56 197
56 199
56 211
57 63
57 86
57 104
57 123
57 134
57 200
57 212
58 80
58 87
58 105
58 110
58 124
58 136
58 163
58 165
58 175
58 179
58 187
58 198
58 201
58 212
58 213
59 81
59 91
59 111
59 126
59 137
59 176
59 180
59 188
59 199
59 202
59 213
60 76
60 106
60 128
60 200
60 214
61 77
61 82
61 88
61 100
61 107
61 113
61 129
61 160
61 164
61 178
61 183
61 201
61 203
61 214
61 215
62 83
62 101
62 114
62 130
62 202
62 204
62 215
63 78
63 108
63 116
63 132
63 190
63 216
64 73
64 94
64 147
64 205
65 67
65 95
65 141
65 209
66 70
66 96
66 144
66 213
67 151
67 159
67 190
67 193
67 217
68 90
68 148
68 152
68 191
68 194
69 149
69 153
69 196
70 151
70 155
70 195
70 198
70 218
71 92
71 152
71 156
71 196
71 199
72 153
72 157
72 201
73 155
73 159
73 200
73 203
73 219
74 88
74 148
74 156
74 201
74 204
75 149
75 157
75 191
76 119
76 136
76 169
76 206
76 216
77 120
77 137
77 170
77 183
77 205
77 207
77 217
77 220
78 113
78 123
78 172
78 206
78 208
79 114
79 124
79 167
79 207
79 209
79 221
80 118
80 128
80 175
80 208
80 210
81 119
81 129
81 171
81 176
81 209
81 211
81 218
81 222
82 122
82 132
82 178
82 210
82 212
83 123
83 133
83 173
83 211
83 213
83 223
84 127
84 137
84 181
84 212
84 214
85 128
85 138
85 177
85 182
85 213
85 215
85 219
85 224
86 114
86 131
86 166
86 214
86 216
87 115
87 132
87 179
87 205
87 215
87 225
88 103
88 204
89 111
89 193
90 107
90 194
91 103
91 198
92 111
92 199
93 107
93 203
94 98
94 115
94 125
95 99
95 124
95 134
96 97
96 116
96 133
97 162
97 166
98 164
98 172
99 160
99 178
100 141
100 147
100 169
100 217
101 170
101 183
101 185
102 139
102 142
102 172
103 140
103 143
103 167
103 184
104 141
104 144
104 175
104 218
105 171
105 176
105 187
106 142
106 145
106 178
107 143
107 146
107 173
107 186
108 144
108 147
108 181
108 219
109 177
109 182
109 189
110 139
110 145
110 166
111 140
111 146
111 179
111 188
112 117
112 135
112 158
112 192
112 220
112 225
113 118
113 136
113 150
113 203
113 206
114 119
114 137
114 204
114 207
114 216
114 229
115 120
115 138
115 159
115 193
115 205
115 229
116 151
116 190
116 226
117 121
117 148
117 194
117 220
117 221
118 122
118 152
118 191
118 208
118 230
119 123
119 192
119 195
119 206
119 209
119 230
120 124
120 149
120 196
120 207
120 226
121 126
121 150
121 197
121 221
121 222
122 127
122 154
122 193
122 210
123 128
123 194
123 208
123 211
123 231
124 129
124 151
124 198
124 209
124 231
125 155
125 195
125 227
126 130
126 152
126 199
126 222
126 223
127 131
127 156
127 196
127 212
127 232
128 132
128 197
128 200
128 210
128 213
128 232
129 133
129 153
129 201
129 211
129 227
130 135
130 154
130 202
130 223
130 224
131 136
131 158
131 198
131 214
132 137
132 199
132 212
132 215
132 233
133 138
133 155
133 203
133 213
133 233
134 159
134 200
134 228
135 156
135 204
135 224
135 225
136 148
136 201
136 216
136 234
137 190
137 202
137 205
137 214
137 234
138 157
138 191
138 215
138 228
139 229
140 185
141 217
142 231
143 187
144 218
145 233
146 189
147 219
148 161
148 184
148 189
149 160
149 226
149 235
150 162
151 161
151 226
152 163
152 185
152 186
153 162
153 227
153 236
154 164
155 163
155 227
156 165
156 187
156 188
157 164
157 228
157 237
158 160
159 165
159 228
160 167
160 181
160 220
161 166
161 171
161 221
161 229
161 230
161 235
162 169
162 173
162 222
163 172
163 177
163 223
163 231
163 232
163 236
164 175
164 179
164 224
165 178
165 183
165 225
165 233
165 234
165 237
166 203
166 206
166 229
167 193
167 205
168 194
168 229
169 191
169 208
169 235
170 192
170 209
171 196
171 207
171 230
172 193
172 210
172 231
173 198
173 209
174 199
174 231
175 196
175 212
175 236
176 197
176 213
177 201
177 211
177 232
178 198
178 214
178 233
179 203
179 213
180 204
180 233
181 201
181 216
181 237
182 202
182 205
183 191
183 215
183 234
184 230
186 232
188 234
190 206
190 217
191 207
191 216
191 235
192 205
193 206
193 209
194 207
195 210
195 218
196 208
196 211
196 236
197 209
198 210
198 213
199 211
200 214
200 219
201 212
201 215
201 237
202 213
203 205
203 214
204 215
205 225
205 229
206 230
207 220
207 229
208 230
209 221
209 231
210 232
211 222
211 231
212 232
213 223
213 233
214 234
215 224
215 233
216 234
217 226
218 227
219 228
226 235
227 236
228 237
230 235
232 236
234 237
