0 136
0 137
0 138
0 139
0 140
0 141
0 142
0 143
0 144
0 145
0 146
0 147
1 103
1 117
1 119
1 128
1 132
1 139
1 150
1 158
1 161
1 171
1 172
2 104
2 105
2 118
2 120
2 129
2 133
2 146
2 151
2 159
2 160
2 162
2 173
2 174
3 106
3 107
3 119
3 121
3 130
3 134
3 141
3 148
3 152
3 161
3 163
3 174
3 175
4 108
4 120
4 122
4 131
4 135
4 136
4 149
4 153
4 162
4 164
4 176
5 109
5 121
5 123
5 124
5 132
5 143
5 150
5 154
5 163
5 165
5 176
6 110
6 111
6 112
6 122
6 125
6 133
6 138
6 151
6 155
6 164
6 166
6 177
6 178
7 94
7 95
7 113
7 123
7 126
7 134
7 145
7 152
7 156
7 165
7 167
7 178
7 179
8 96
8 112
8 114
8 127
8 135
8 140
8 153
8 157
8 166
8 168
8 180
9 97
9 113
9 115
9 124
9 128
9 147
9 154
9 158
9 167
9 169
9 180
10 98
10 99
10 114
10 116
10 125
10 129
10 142
10 155
10 159
10 168
10 170
10 181
10 182
11 100
11 101
11 115
11 117
11 126
11 130
11 137
11 148
11 156
11 169
11 171
11 182
11 183
12 102
12 116
12 118
12 127
12 131
12 144
12 149
12 157
12 160
12 170
12 172
13 72
13 75
13 87
13 90
13 151
13 158
14 74
14 77
14 89
14 92
14 148
14 153
15 67
15 76
15 82
15 91
15 150
15 155
16 69
16 78
16 84
16 93
16 152
16 157
17 68
17 71
17 83
17 86
17 154
17 159
18 70
18 73
18 85
18 88
18 149
18 156
19 46
19 47
19 62
19 71
19 75
19 99
19 127
19 133
19 162
19 170
19 185
19 207
20 48
20 49
20 61
20 72
20 76
20 101
20 109
20 128
20 134
20 163
20 171
20 186
20 188
21 49
21 50
21 64
21 73
21 77
21 102
21 110
21 129
21 135
21 160
21 164
21 187
21 189
22 51
22 52
22 63
22 74
22 78
22 94
22 124
22 130
22 161
22 165
22 190
22 192
23 52
23 53
23 66
23 67
23 75
23 105
23 125
23 131
23 162
23 166
23 191
23 193
24 37
24 54
24 65
24 68
24 76
24 97
24 107
24 126
24 132
24 163
24 167
24 194
24 196
25 37
25 38
25 56
25 69
25 77
25 98
25 108
25 127
25 133
25 164
25 168
25 195
25 197
26 39
26 40
26 55
26 70
26 78
26 100
26 128
26 134
26 165
26 169
26 198
26 200
27 40
27 41
27 58
27 67
27 71
27 111
27 129
27 135
27 166
27 170
27 199
27 201
28 42
28 43
28 57
28 68
28 72
28 95
28 103
28 124
28 130
28 167
28 171
28 202
28 204
29 43
29 44
29 60
29 69
29 73
29 96
29 104
29 125
29 131
29 160
29 168
29 203
29 205
30 45
30 46
30 59
30 70
30 74
30 106
30 126
30 132
30 161
30 169
30 184
30 206
31 46
31 49
31 60
31 63
31 139
31 146
31 151
31 158
31 184
31 187
31 208
32 49
32 52
32 62
32 65
32 80
32 136
32 141
32 148
32 153
32 188
32 191
32 209
33 37
33 52
33 55
33 64
33 138
33 143
33 150
33 155
33 192
33 195
33 210
34 37
34 40
34 57
34 66
34 81
34 140
34 145
34 152
34 157
34 196
34 199
34 211
35 40
35 43
35 56
35 59
35 142
35 147
35 154
35 159
35 200
35 203
35 212
36 43
36 46
36 58
36 61
36 79
36 137
36 144
36 149
36 156
36 204
36 207
36 213
37 43
37 49
37 98
37 107
37 126
37 133
37 138
37 145
37 174
37 182
37 186
37 205
37 208
37 213
38 44
38 50
38 108
38 127
38 187
39 45
39 51
39 100
39 134
39 175
39 183
39 184
39 220
40 46
40 52
40 81
40 128
40 135
40 140
40 147
40 172
40 176
40 185
40 190
40 208
40 209
40 214
40 215
40 220
40 221
41 47
41 53
41 111
41 129
41 173
41 177
41 191
41 221
42 48
42 54
42 80
42 103
42 124
42 188
43 49
43 95
43 104
43 125
43 130
43 137
43 142
43 174
43 178
43 189
43 194
43 209
43 210
44 50
44 96
44 131
44 195
45 51
45 106
45 126
45 175
45 179
45 192
45 222
46 52
46 79
46 127
46 132
46 139
46 144
46 176
46 180
46 193
46 198
46 210
46 211
46 216
46 217
46 222
46 223
47 53
47 99
47 133
47 177
47 181
47 199
47 223
48 54
48 81
48 109
48 128
48 196
49 101
49 110
49 129
49 134
49 141
49 146
49 178
49 182
49 197
49 202
49 211
49 212
50 102
50 135
50 203
51 94
51 130
51 179
51 183
51 200
51 224
52 80
52 124
52 131
52 136
52 143
52 172
52 180
52 201
52 206
52 212
52 213
52 218
52 219
52 224
52 225
53 105
53 125
53 173
53 181
53 207
53 225
54 79
54 97
54 132
54 204
55 70
55 91
55 121
55 150
55 206
55 214
56 77
56 86
56 116
56 159
56 189
57 72
57 93
57 123
57 152
57 186
58 67
58 88
58 118
58 149
58 193
58 215
59 74
59 83
59 113
59 154
59 190
59 216
60 69
60 90
60 120
60 151
60 197
61 76
61 85
61 115
61 156
61 194
62 71
62 92
62 122
62 153
62 201
62 217
63 78
63 87
63 117
63 158
63 198
63 218
64 73
64 82
64 112
64 155
64 205
65 68
65 89
65 119
65 148
65 202
66 75
66 84
66 114
66 157
66 185
66 219
67 91
67 98
67 108
67 162
67 170
67 213
67 214
67 226
68 86
68 100
68 163
68 171
68 209
68 227
69 93
69 111
69 160
69 164
69 208
69 228
70 88
70 95
70 103
70 161
70 165
70 210
70 215
70 229
71 83
71 96
71 104
71 162
71 166
71 209
71 216
71 230
72 90
72 106
72 163
72 167
72 211
72 231
73 85
73 99
73 164
73 168
73 210
73 232
74 92
74 101
74 109
74 165
74 169
74 212
74 217
74 233
75 87
75 102
75 110
75 166
75 170
75 211
75 218
75 234
76 82
76 94
76 167
76 171
76 213
76 235
77 89
77 105
77 160
77 168
77 212
77 236
78 84
78 97
78 107
78 161
78 169
78 208
78 219
78 237
79 136
79 220
80 140
80 222
81 144
81 224
82 85
82 150
82 226
83 92
83 159
83 183
83 227
84 87
84 152
84 177
84 228
85 149
85 229
86 89
86 154
86 230
87 151
87 175
87 231
88 91
88 156
88 181
88 232
89 153
89 233
90 93
90 158
90 234
91 155
91 179
91 235
92 148
92 173
92 236
93 157
93 237
94 126
94 213
94 238
95 134
95 227
95 238
96 135
96 209
96 239
97 128
97 208
97 240
98 129
98 228
98 241
99 125
99 210
99 241
100 130
100 209
100 242
101 126
101 231
101 242
102 127
102 211
102 243
103 132
103 210
103 244
104 133
104 232
104 245
105 129
105 212
105 245
106 134
106 211
106 246
107 130
107 235
107 246
108 131
108 213
108 247
109 124
109 212
109 248
110 125
110 236
110 249
111 133
111 208
111 249
112 138
112 187
112 205
113 147
113 184
113 190
114 140
114 185
114 191
115 137
115 188
115 194
116 142
116 189
116 195
117 139
117 192
117 198
118 144
118 193
118 199
119 141
119 196
119 202
120 146
120 197
120 203
121 143
121 200
121 206
122 136
122 201
122 207
123 145
123 186
123 204
124 150
124 158
124 188
124 206
124 237
125 151
125 159
125 189
125 207
125 228
126 148
126 152
126 186
126 192
126 227
127 149
127 153
127 187
127 193
127 230
128 150
128 154
128 190
128 196
128 229
129 151
129 155
129 191
129 197
129 232
130 152
130 156
130 194
130 200
130 231
131 153
131 157
131 195
131 201
131 234
132 154
132 158
132 198
132 204
132 233
133 155
133 159
133 199
133 205
133 236
134 148
134 156
134 184
134 202
134 235
135 149
135 157
135 185
135 203
135 226
136 138
136 146
136 162
136 213
136 220
136 239
137 139
137 147
137 171
137 209
137 238
138 140
138 164
138 208
138 241
139 141
139 161
139 210
139 221
139 240
140 142
140 166
140 209
140 222
140 243
141 143
141 163
141 211
141 242
142 144
142 168
142 210
142 245
143 145
143 165
143 212
143 223
143 244
144 146
144 170
144 211
144 224
144 247
145 147
145 167
145 213
145 246
146 160
146 212
146 249
147 169
147 208
147 225
147 248
148 188
148 206
148 227
149 189
149 207
149 215
149 226
150 186
150 192
150 214
150 229
151 187
151 193
151 228
152 190
152 196
152 231
153 191
153 197
153 217
153 230
154 194
154 200
154 216
154 233
155 195
155 201
155 232
156 198
156 204
156 235
157 199
157 205
157 219
157 234
158 184
158 202
158 218
158 237
159 185
159 203
159 236
160 174
160 187
160 205
160 239
160 249
161 172
161 175
161 184
161 190
161 238
161 240
162 173
162 176
162 185
162 191
162 239
162 241
163 174
163 188
163 194
163 240
163 242
164 178
164 189
164 195
164 241
164 243
165 176
165 179
165 192
165 198
165 242
165 244
166 177
166 180
166 193
166 199
166 243
166 245
167 178
167 196
167 202
167 244
167 246
168 182
168 197
168 203
168 245
168 247
169 180
169 183
169 200
169 206
169 246
169 248
170 172
170 181
170 201
170 207
170 247
170 249
171 182
171 186
171 204
171 238
171 248
172 214
172 219
176 215
176 216
180 217
180 218
208 221
208 228
208 237
209 220
209 227
209 230
210 223
210 229
210 232
211 222
211 231
211 234
212 225
212 233
212 236
213 224
213 226
213 235
214 215
214 226
215 229
216 217
216 230
217 233
218 219
218 234
219 237
226 239
227 238
228 241
229 240
230 243
231 242
232 245
233 244
234 247
235 246
236 249
237 248
