0 118
0 119
0 120
0 121
0 122
0 123
0 124
0 125
0 126
0 127
0 128
0 129
0 130
0 131
0 132
0 133
0 134
0 135
0 136
0 137
0 138
0 139
0 140
0 141
0 142
0 143
0 144
0 145
0 146
0 147
1 100
1 101
1 110
1 114
1 126
1 142
1 150
1 158
1 161
1 171
1 172
2 111
2 115
2 128
2 144
2 151
2 159
2 160
2 162
2 173
3 112
3 116
3 131
3 147
3 148
3 152
3 161
3 163
3 173
4 102
4 103
4 113
4 117
4 119
4 133
4 149
4 153
4 162
4 164
4 174
5 104
5 105
5 106
5 114
5 122
5 136
5 150
5 154
5 163
5 165
5 174
6 107
6 115
6 124
6 138
6 151
6 155
6 164
6 166
6 175
7 108
7 116
7 127
7 141
7 152
7 156
7 165
7 167
7 175
8 94
8 95
8 109
8 117
8 129
8 143
8 153
8 157
8 166
8 168
8 176
9 96
9 97
9 106
9 110
9 132
9 146
9 154
9 158
9 167
9 169
9 176
10 107
10 111
10 118
10 134
10 155
10 159
10 168
10 170
10 177
11 108
11 112
11 121
11 137
11 148
11 156
11 169
11 171
11 177
12 98
12 99
12 109
12 113
12 123
12 139
12 149
12 157
12 160
12 170
12 172
13 75
13 87
13 89
13 125
13 141
13 173
13 178
13 179
14 78
14 88
14 90
14 99
14 129
14 145
14 172
14 182
15 77
15 89
15 91
15 104
15 130
15 146
15 174
15 183
16 80
16 90
16 92
16 120
16 134
16 173
16 186
16 187
17 79
17 91
17 93
17 121
17 135
17 175
17 188
17 189
18 70
18 82
18 92
18 103
18 125
18 139
18 174
18 192
19 81
19 83
19 93
19 96
19 126
19 140
19 176
19 193
20 72
20 82
20 84
20 130
20 144
20 175
20 196
20 197
21 71
21 83
21 85
21 131
21 145
21 177
21 198
21 199
22 74
22 84
22 86
22 95
22 119
22 135
22 176
22 202
23 73
23 85
23 87
23 100
23 120
23 136
23 172
23 203
24 76
24 86
24 88
24 124
24 140
24 177
24 206
24 207
25 61
25 62
25 74
25 78
25 102
25 109
25 115
25 162
25 170
25 204
25 209
25 219
26 63
26 64
26 75
26 79
26 104
26 110
26 116
26 163
26 171
26 179
26 185
27 64
27 65
27 76
27 80
27 99
27 111
27 117
27 160
27 164
27 180
27 186
28 66
28 67
28 77
28 81
28 101
28 106
28 112
28 161
28 165
28 191
28 210
28 212
29 67
29 68
29 70
29 78
29 94
29 107
29 113
29 162
29 166
29 184
29 211
29 213
30 52
30 69
30 71
30 79
30 96
30 108
30 114
30 163
30 167
30 189
30 195
31 52
31 53
31 72
31 80
31 103
31 109
31 115
31 164
31 168
31 190
31 196
32 54
32 55
32 73
32 81
32 105
32 110
32 116
32 165
32 169
32 201
32 214
32 216
33 55
33 56
33 70
33 74
33 98
33 111
33 117
33 166
33 170
33 194
33 215
33 217
34 57
34 58
34 71
34 75
34 100
34 106
34 112
34 167
34 171
34 199
34 205
35 58
35 59
35 72
35 76
35 95
35 107
35 113
35 160
35 168
35 200
35 206
36 60
36 61
36 73
36 77
36 97
36 108
36 114
36 161
36 169
36 181
36 208
36 218
37 60
37 63
37 90
37 125
37 142
37 150
37 182
37 205
37 220
38 62
38 65
38 87
38 128
38 145
38 159
38 178
38 184
38 209
38 222
39 63
39 66
39 92
39 130
39 147
39 152
39 181
39 187
39 210
39 223
40 64
40 67
40 88
40 93
40 119
40 131
40 148
40 153
40 189
40 211
40 224
41 65
41 68
41 89
41 120
41 133
41 149
41 183
41 190
41 225
42 66
42 69
42 82
42 122
42 135
42 154
42 185
42 192
42 226
43 53
43 68
43 91
43 125
43 138
43 151
43 188
43 194
43 213
43 228
44 54
44 69
44 84
44 127
44 140
44 156
44 191
44 197
44 214
44 229
45 52
45 55
45 85
45 92
45 129
45 141
45 152
45 157
45 199
45 215
45 230
46 53
46 56
46 93
46 130
46 143
46 153
46 193
46 200
46 231
47 54
47 57
47 86
47 132
47 145
47 158
47 195
47 202
47 232
48 56
48 59
48 83
48 118
48 135
48 155
48 198
48 204
48 217
48 234
49 57
49 60
49 88
49 120
49 137
49 148
49 201
49 207
49 218
49 235
50 58
50 61
50 84
50 89
50 121
50 139
50 149
50 156
50 179
50 219
50 236
51 59
51 62
51 85
51 123
51 140
51 157
51 180
51 203
51 237
52 58
52 64
52 85
52 90
52 108
52 115
52 124
52 141
52 173
52 177
52 221
52 236
52 238
52 249
53 59
53 65
53 91
53 103
53 109
53 125
53 143
53 183
53 204
53 222
53 237
53 238
54 60
54 66
54 86
54 116
54 127
54 145
54 185
54 207
54 208
54 220
54 223
54 239
55 61
55 67
55 87
55 92
55 98
55 105
55 110
55 117
55 129
55 146
55 172
55 174
55 179
55 186
55 209
55 210
55 221
55 224
55 239
55 240
56 62
56 68
56 93
56 111
56 118
56 130
56 180
56 188
56 211
56 222
56 225
56 240
57 63
57 69
57 88
57 100
57 106
57 120
57 132
57 182
57 191
57 223
57 226
57 241
58 64
58 82
58 89
58 107
58 112
58 121
58 134
58 173
58 175
58 224
58 227
58 241
58 242
59 65
59 83
59 95
59 113
59 123
59 135
59 184
59 193
59 225
59 228
59 242
60 66
60 90
60 108
60 125
60 137
60 187
60 195
60 212
60 226
60 229
60 243
61 67
61 84
61 91
61 97
61 102
61 109
61 114
61 126
61 139
61 174
61 176
61 189
61 196
61 213
61 214
61 227
61 230
61 243
61 244
62 68
62 85
62 115
62 128
62 140
62 190
62 198
62 215
62 228
62 231
62 244
63 69
63 92
63 104
63 110
63 130
63 142
63 192
63 201
63 229
63 232
63 245
64 86
64 93
64 111
64 116
64 131
64 144
64 175
64 177
64 230
64 233
64 245
64 246
65 87
65 99
65 117
65 133
65 145
65 194
65 203
65 231
65 234
65 246
66 82
66 112
66 135
66 147
66 197
66 205
66 216
66 232
66 235
66 247
67 83
67 88
67 94
67 101
67 106
67 113
67 119
67 136
67 172
67 176
67 199
67 206
67 217
67 218
67 233
67 236
67 247
67 248
68 89
68 107
68 120
68 138
68 178
68 200
68 219
68 234
68 237
68 248
69 84
69 96
69 114
69 122
69 140
69 181
69 202
69 220
69 235
69 249
70 103
70 162
70 170
70 222
70 236
70 250
71 105
71 163
71 171
71 220
71 224
72 98
72 160
72 164
72 221
72 225
73 100
73 161
73 165
73 223
73 227
73 251
74 95
74 162
74 166
74 224
74 228
74 252
75 97
75 163
75 167
75 226
75 230
76 102
76 164
76 168
76 227
76 231
77 104
77 165
77 169
77 229
77 233
77 253
78 99
78 166
78 170
78 230
78 234
78 254
79 101
79 167
79 171
79 232
79 236
80 94
80 160
80 168
80 233
80 237
81 96
81 161
81 169
81 221
81 235
81 255
82 125
82 144
82 205
82 239
82 249
83 126
83 145
83 184
83 206
83 238
83 240
84 119
84 130
84 181
84 189
84 239
84 241
85 120
85 131
85 190
85 240
85 242
86 124
86 135
86 185
86 241
86 243
87 125
87 136
87 186
87 194
87 242
87 244
88 129
88 140
88 191
88 199
88 243
88 245
89 130
89 141
89 200
89 244
89 246
90 134
90 145
90 195
90 245
90 247
91 135
91 146
91 196
91 204
91 246
91 248
92 120
92 139
92 179
92 201
92 247
92 249
93 121
93 140
93 180
93 238
93 248
94 109
94 237
94 250
95 117
95 224
96 110
96 221
97 106
97 226
97 251
98 113
98 225
98 252
99 109
99 230
100 114
100 227
101 110
101 232
101 253
102 117
102 231
102 254
103 113
103 236
104 106
104 233
105 114
105 220
105 255
106 150
106 158
106 205
106 218
106 255
107 151
107 159
107 184
107 206
107 219
108 148
108 152
108 181
108 189
108 212
109 149
109 153
109 190
109 213
109 252
110 150
110 154
110 185
110 210
110 251
111 151
111 155
111 186
111 194
111 211
112 152
112 156
112 191
112 199
112 216
113 153
113 157
113 200
113 217
113 254
114 154
114 158
114 195
114 214
114 253
115 155
115 159
115 196
115 204
115 215
116 148
116 156
116 179
116 201
116 208
117 149
117 157
117 180
117 209
117 250
118 123
118 143
118 170
118 222
119 124
119 144
119 162
119 236
119 239
120 125
120 145
120 223
120 237
120 240
120 249
120 256
121 126
121 146
121 171
121 224
121 238
121 256
122 127
122 147
122 163
122 220
123 128
123 160
123 225
124 129
124 164
124 221
124 241
124 257
125 130
125 222
125 226
125 239
125 242
125 257
125 258
126 131
126 161
126 227
126 240
126 258
127 132
127 165
127 223
128 133
128 162
128 228
129 134
129 166
129 224
129 243
130 135
130 225
130 229
130 241
130 244
130 259
131 136
131 163
131 230
131 242
131 259
132 137
132 167
132 226
133 138
133 164
133 231
134 139
134 168
134 227
134 245
134 260
135 140
135 228
135 232
135 243
135 246
135 260
135 261
136 141
136 165
136 233
136 244
136 261
137 142
137 169
137 229
138 143
138 166
138 234
139 144
139 170
139 230
139 247
140 145
140 231
140 235
140 245
140 248
140 262
141 146
141 167
141 236
141 246
141 262
142 147
142 171
142 232
143 168
143 237
144 160
144 233
144 249
144 263
145 220
145 234
145 238
145 247
145 263
145 264
146 169
146 221
146 248
146 264
147 161
147 235
148 218
148 256
149 219
149 250
150 212
150 251
150 258
151 213
151 257
152 210
152 259
153 211
153 252
154 216
154 253
154 261
155 217
155 260
156 214
156 262
157 215
157 254
158 208
158 255
158 264
159 209
159 263
160 173
161 172
161 208
161 210
162 174
162 209
162 211
163 173
164 175
165 174
165 212
165 214
166 176
166 213
166 215
167 175
168 177
169 176
169 216
169 218
170 172
170 217
170 219
171 177
172 264
173 179
173 186
173 256
173 257
174 258
175 189
175 196
175 259
175 260
176 261
177 199
177 206
177 262
177 263
178 222
178 264
179 236
179 239
179 256
180 237
180 240
181 223
181 249
182 220
182 257
183 225
183 256
184 222
184 242
185 226
185 239
186 227
186 240
186 257
187 223
188 228
188 258
189 224
189 243
189 259
190 225
190 244
191 229
191 241
192 226
192 260
193 231
193 259
194 228
194 246
195 232
195 243
196 233
196 244
196 260
197 229
198 234
198 261
199 230
199 247
199 262
200 231
200 248
201 235
201 245
202 232
202 263
203 237
203 262
204 234
204 238
205 220
205 247
206 221
206 248
206 263
207 235
208 264
212 258
216 261
220 239
221 240
221 249
221 255
222 238
223 241
224 239
224 242
224 252
225 240
226 243
227 241
227 244
227 251
228 242
229 245
230 243
230 246
230 254
231 244
232 247
233 245
233 248
233 253
234 246
235 249
236 238
236 247
236 250
237 248
238 256
238 264
239 257
240 256
240 258
241 257
242 258
242 259
243 260
244 259
244 261
245 260
246 261
246 262
247 263
248 262
248 264
249 263
