0 123
0 124
0 125
0 126
0 127
0 128
0 129
0 130
0 131
0 132
0 133
0 134
0 135
0 136
0 137
0 138
0 139
0 140
0 141
0 142
0 143
0 144
0 145
0 146
1 104
1 109
1 115
1 119
1 130
1 142
1 149
1 157
1 167
1 168
1 178
2 116
2 120
2 144
2 150
2 158
2 159
2 160
2 169
2 170
3 105
3 106
3 110
3 118
3 122
3 123
3 135
3 148
3 152
3 160
3 162
3 171
3 179
4 107
4 110
4 111
4 119
4 126
4 138
4 149
4 153
4 161
4 171
4 173
4 180
5 112
5 120
5 128
5 150
5 154
5 162
5 163
5 172
5 174
6 99
6 100
6 108
6 114
6 122
6 131
6 143
6 152
6 156
6 163
6 165
6 175
6 181
7 101
7 108
7 111
7 115
7 134
7 146
7 153
7 157
7 164
7 175
7 182
8 112
8 116
8 136
8 154
8 158
8 165
8 166
8 176
8 177
9 102
9 103
9 109
9 114
9 118
9 127
9 139
9 148
9 156
9 159
9 166
9 168
9 183
10 88
10 89
10 96
10 97
10 109
10 110
10 159
10 161
10 178
10 179
11 81
11 92
11 93
11 98
11 108
11 110
11 162
11 164
11 180
11 181
12 84
12 85
12 94
12 95
12 108
12 109
12 165
12 167
12 182
12 183
13 77
13 90
13 103
13 131
13 145
13 168
13 184
13 188
13 189
14 76
14 87
14 107
14 132
14 146
14 169
14 171
14 190
14 191
15 69
15 82
15 106
15 129
15 139
15 171
15 185
15 194
15 195
16 80
16 91
16 101
16 130
16 140
16 172
16 175
16 196
16 197
17 73
17 86
17 100
17 123
17 137
17 175
17 186
17 201
17 202
18 72
18 83
18 104
18 124
18 138
18 168
18 176
18 203
18 204
19 76
19 79
19 96
19 147
19 152
19 190
19 207
20 71
20 80
20 98
20 151
20 156
20 196
20 208
21 72
21 75
21 94
21 148
21 155
21 203
21 209
22 55
22 56
22 73
22 77
22 105
22 114
22 120
22 160
22 166
22 186
22 188
23 57
23 58
23 65
23 74
23 78
23 107
23 115
23 121
23 161
23 167
23 187
23 211
24 58
24 59
24 75
24 79
24 103
24 116
24 122
24 159
24 162
24 192
24 210
24 212
25 60
25 61
25 68
25 76
25 80
25 111
25 117
25 191
26 61
26 62
26 69
26 77
26 99
26 112
26 118
26 160
26 163
26 184
26 194
27 46
27 63
27 67
27 70
27 78
27 101
27 113
27 119
27 161
27 164
27 193
27 198
27 214
28 46
28 47
28 71
28 79
28 106
28 114
28 120
28 162
28 165
28 199
28 213
28 215
29 48
29 49
29 72
29 80
29 115
29 121
29 197
30 49
30 50
30 69
30 73
30 102
30 116
30 122
30 163
30 166
30 185
30 201
31 51
31 52
31 64
31 70
31 74
31 104
31 111
31 117
31 164
31 167
31 200
31 205
31 216
31 218
32 52
32 53
32 71
32 75
32 100
32 112
32 118
32 159
32 165
32 206
32 217
32 219
33 54
33 55
33 66
33 72
33 76
33 113
33 119
33 204
34 54
34 57
34 85
34 90
34 129
34 142
34 149
34 189
34 205
34 220
35 55
35 58
35 86
35 130
35 144
35 150
35 157
35 191
35 206
35 210
35 221
36 58
36 61
36 67
36 91
36 123
36 133
36 147
36 152
36 188
36 193
36 211
36 222
37 59
37 62
37 87
37 92
37 124
37 135
37 148
37 190
37 212
37 223
38 60
38 63
38 82
38 89
38 126
38 137
38 153
38 195
38 224
39 46
39 61
39 90
39 128
39 138
39 149
39 154
39 192
39 197
39 213
39 225
40 46
40 49
40 64
40 83
40 131
40 141
40 151
40 156
40 194
40 200
40 214
40 226
41 47
41 50
41 84
41 91
41 132
41 143
41 152
41 196
41 215
41 227
42 48
42 51
42 81
42 86
42 134
42 145
42 157
42 198
42 202
42 216
42 228
43 49
43 52
43 82
43 136
43 146
43 153
43 158
43 199
43 204
43 217
43 229
44 52
44 55
44 65
44 87
44 125
44 139
44 148
44 155
44 187
44 201
44 218
44 230
45 53
45 56
45 83
45 88
45 127
45 140
45 156
45 203
45 219
45 231
46 52
46 58
46 83
46 90
46 113
46 120
46 128
46 141
46 170
46 177
46 188
46 204
46 219
46 221
46 230
47 53
47 59
47 84
47 106
47 114
47 129
47 143
47 190
47 210
47 231
47 232
48 54
48 60
48 86
48 121
48 145
48 220
48 233
49 55
49 61
49 102
49 115
49 122
49 131
49 146
49 168
49 171
49 187
49 192
49 221
49 222
49 233
49 234
50 56
50 62
50 91
50 116
50 132
50 169
50 172
50 223
50 234
51 57
51 63
51 81
51 104
51 111
51 124
51 134
51 173
51 189
51 211
51 224
51 235
52 58
52 82
52 87
52 112
52 117
52 125
52 136
52 170
52 174
52 191
52 194
52 212
52 222
52 225
53 59
53 88
53 100
53 118
53 127
53 137
53 196
53 213
53 223
53 236
54 60
54 90
54 113
54 129
54 198
54 224
54 237
55 61
55 105
55 114
55 119
55 130
55 139
55 171
55 175
55 193
55 199
55 225
55 226
55 237
55 238
56 62
56 83
56 120
56 140
56 172
56 176
56 227
56 238
57 63
57 85
57 107
57 115
57 132
57 142
57 173
57 195
57 214
57 228
57 239
58 86
58 91
58 116
58 121
58 133
58 144
58 174
58 177
58 197
58 201
58 215
58 216
58 226
58 229
59 92
59 103
59 122
59 135
59 145
59 203
59 217
59 227
59 240
60 82
60 117
60 137
60 205
60 228
60 241
61 99
61 111
61 118
61 123
61 138
61 168
61 175
61 200
61 206
61 229
61 230
61 241
61 242
62 87
62 112
62 124
62 169
62 176
62 231
62 242
63 89
63 101
63 119
63 126
63 140
63 202
63 218
63 220
63 243
64 74
64 98
64 151
64 180
64 235
65 78
65 94
65 155
65 182
65 239
66 72
66 151
66 238
67 70
67 96
67 147
67 178
67 216
67 243
68 76
68 155
68 242
69 106
69 160
69 166
69 230
70 95
70 161
70 167
70 220
70 222
70 244
70 250
71 98
71 102
71 159
71 162
71 221
71 223
71 245
72 104
72 225
72 251
72 252
73 100
73 160
73 163
73 222
74 97
74 161
74 164
74 224
74 226
74 246
75 94
75 105
75 162
75 165
75 225
75 227
75 247
76 107
76 229
76 253
76 254
77 103
77 163
77 166
77 226
78 93
78 164
78 167
78 228
78 230
78 248
79 96
79 99
79 159
79 165
79 229
79 231
79 249
80 101
80 221
80 255
81 128
81 142
81 189
81 243
81 244
81 255
82 129
82 144
82 191
82 205
82 233
83 124
83 133
83 188
83 234
83 251
84 125
84 135
84 190
84 236
84 245
85 126
85 136
85 195
85 235
85 246
85 252
86 128
86 137
86 197
86 237
87 132
87 141
87 194
87 238
87 253
88 133
88 143
88 196
88 240
88 247
89 134
89 144
89 202
89 239
89 248
89 254
90 136
90 145
90 198
90 204
90 241
91 125
91 140
91 201
91 242
92 127
92 141
92 203
92 232
92 249
93 94
93 110
93 149
94 109
94 148
94 252
95 96
95 108
95 153
96 110
96 152
96 173
96 254
97 98
97 109
97 157
98 108
98 156
98 255
99 114
99 184
99 231
100 122
100 179
100 222
101 115
101 178
101 221
101 250
102 118
102 185
102 223
103 114
103 181
103 226
104 119
104 180
104 225
105 122
105 186
105 227
106 118
106 183
106 230
107 111
107 182
107 229
108 207
108 232
108 235
108 244
108 245
109 208
109 236
109 239
109 246
109 247
110 209
110 240
110 243
110 248
110 249
111 149
111 157
111 191
111 205
111 211
111 250
111 255
112 150
112 158
112 206
112 212
112 256
113 147
113 151
113 193
113 251
114 148
114 152
114 188
114 210
115 149
115 153
115 197
115 214
115 252
116 150
116 154
116 192
116 215
116 257
117 151
117 155
117 200
117 253
118 152
118 156
118 194
118 213
119 153
119 157
119 198
119 204
119 218
119 254
120 154
120 158
120 199
120 219
120 258
121 147
121 155
121 187
121 216
122 148
122 156
122 201
122 217
123 128
123 144
123 160
123 186
123 230
123 233
123 243
124 129
124 145
124 184
124 231
124 234
124 256
124 259
125 130
125 146
125 167
125 222
125 259
126 161
126 220
126 235
127 159
127 223
127 232
128 131
128 162
128 221
128 256
128 260
129 132
129 224
129 233
129 260
130 133
130 225
130 234
130 236
131 136
131 163
131 184
131 222
131 235
131 237
132 137
132 185
132 223
132 238
132 257
132 261
133 138
133 161
133 226
133 261
134 164
134 224
134 239
135 162
135 227
135 236
136 139
136 165
136 225
136 257
136 262
137 140
137 228
137 237
137 262
138 141
138 229
138 238
138 240
139 144
139 166
139 185
139 226
139 239
139 241
140 145
140 186
140 227
140 242
140 258
140 263
141 146
141 164
141 230
141 263
142 167
142 228
142 243
143 165
143 231
143 240
144 159
144 229
144 258
144 264
145 220
145 241
145 264
146 221
146 232
146 242
147 211
147 259
148 183
148 209
148 212
149 180
149 250
149 252
150 210
150 260
151 214
151 251
151 261
152 179
152 207
152 215
153 182
153 254
154 213
154 262
155 218
155 253
155 263
156 181
156 208
156 219
157 178
157 216
157 255
158 217
158 264
159 170
159 210
159 219
159 249
160 169
160 171
161 170
161 173
161 211
161 246
162 174
162 212
162 213
162 245
163 172
163 175
164 174
164 214
164 216
164 248
165 177
165 215
165 217
165 247
166 168
166 176
167 177
167 218
167 244
168 188
168 204
169 190
169 259
170 187
170 192
170 259
170 260
171 191
171 194
172 196
172 261
173 198
174 193
174 199
174 261
174 262
175 197
175 201
176 203
176 263
177 200
177 206
177 263
177 264
178 243
178 250
179 236
180 235
181 240
182 239
183 232
184 256
185 257
186 258
187 230
187 233
187 259
188 222
189 220
189 235
189 260
190 207
190 223
190 232
190 259
191 221
192 225
192 234
192 260
193 222
193 237
193 261
194 226
195 224
195 239
195 262
196 208
196 227
196 236
196 261
197 225
198 228
198 237
199 229
199 238
199 262
200 226
200 241
200 263
201 230
202 228
202 243
202 264
203 209
203 231
203 240
203 263
204 229
205 220
205 241
206 221
206 242
206 264
207 211
208 214
209 218
210 245
210 260
211 244
211 259
212 256
213 247
213 262
214 246
214 261
215 257
217 249
217 264
218 248
218 263
219 258
220 233
220 243
220 250
221 234
221 255
222 233
223 234
223 236
224 235
224 237
225 238
225 252
226 237
227 238
227 240
228 239
228 241
229 242
229 254
230 241
231 232
231 242
233 260
234 259
237 262
238 261
241 264
242 263
244 255
246 252
248 254
256 260
257 262
258 264
