0 130
0 131
0 132
0 133
0 134
0 135
0 136
0 137
0 138
0 139
0 140
0 141
0 142
0 143
0 144
0 145
0 146
0 147
0 148
0 149
0 150
0 151
0 152
0 153
1 109
1 110
1 116
1 122
1 126
1 137
1 149
1 159
1 167
1 177
1 178
1 180
1 193
2 123
2 127
2 151
2 160
2 168
2 169
2 170
2 179
2 181
3 111
3 112
3 117
3 125
3 129
3 130
3 142
3 158
3 162
3 170
3 172
3 183
3 194
4 113
4 114
4 117
4 118
4 126
4 133
4 145
4 159
4 163
4 171
4 183
4 185
4 195
5 119
5 127
5 135
5 160
5 164
5 172
5 173
5 184
5 186
6 103
6 104
6 115
6 121
6 129
6 138
6 150
6 162
6 166
6 173
6 175
6 188
6 196
7 105
7 106
7 115
7 118
7 122
7 141
7 153
7 163
7 167
7 174
7 188
7 190
7 197
8 119
8 123
8 143
8 164
8 168
8 175
8 176
8 189
8 191
9 107
9 108
9 116
9 121
9 125
9 134
9 146
9 158
9 166
9 169
9 176
9 178
9 198
10 92
10 93
10 100
10 101
10 116
10 117
10 155
10 169
10 171
10 193
10 194
11 85
11 96
11 97
11 102
11 115
11 117
11 156
11 172
11 174
11 195
11 196
12 88
12 89
12 98
12 99
12 115
12 116
12 154
12 175
12 177
12 197
12 198
13 81
13 94
13 108
13 138
13 152
13 178
13 182
13 199
13 203
13 204
14 80
14 91
14 113
14 139
14 153
14 179
14 183
14 205
14 206
15 73
15 86
15 112
15 136
15 146
15 183
15 187
15 200
15 210
15 211
16 84
16 95
16 105
16 137
16 147
16 184
16 188
16 212
16 213
17 77
17 90
17 104
17 130
17 144
17 188
17 192
17 201
17 217
17 218
18 76
18 87
18 109
18 131
18 145
18 178
18 189
18 219
18 220
19 80
19 83
19 100
19 154
19 157
19 162
19 205
19 223
20 75
20 84
20 102
20 155
20 161
20 166
20 212
20 224
21 76
21 79
21 98
21 156
21 158
21 165
21 219
21 225
22 55
22 56
22 77
22 81
22 111
22 121
22 127
22 170
22 176
22 201
22 203
23 57
23 58
23 68
23 70
23 78
23 82
23 113
23 122
23 128
23 171
23 177
23 202
23 207
23 226
23 228
24 58
24 59
24 79
24 83
24 108
24 123
24 129
24 169
24 172
24 208
24 227
24 229
25 60
25 61
25 72
25 80
25 84
25 110
25 118
25 124
25 206
26 61
26 62
26 73
26 81
26 103
26 119
26 125
26 170
26 173
26 199
26 210
27 46
27 63
27 64
27 71
27 74
27 82
27 105
27 120
27 126
27 171
27 174
27 209
27 214
27 230
27 232
28 46
28 47
28 75
28 83
28 112
28 121
28 127
28 172
28 175
28 215
28 231
28 233
29 48
29 49
29 66
29 76
29 84
29 114
29 122
29 128
29 213
30 49
30 50
30 73
30 77
30 107
30 123
30 129
30 173
30 176
30 200
30 217
31 51
31 52
31 65
31 67
31 74
31 78
31 109
31 118
31 124
31 174
31 177
31 216
31 221
31 234
31 236
32 52
32 53
32 75
32 79
32 104
32 119
32 125
32 169
32 175
32 222
32 235
32 237
33 54
33 55
33 69
33 76
33 80
33 106
33 120
33 126
33 220
34 54
34 57
34 67
34 89
34 94
34 136
34 149
34 159
34 204
34 221
34 226
34 238
35 55
35 58
35 90
35 137
35 151
35 160
35 167
35 206
35 222
35 227
35 239
36 58
36 61
36 71
36 95
36 130
36 140
36 157
36 162
36 203
36 209
36 228
36 240
37 59
37 62
37 91
37 96
37 131
37 142
37 158
37 205
37 229
37 241
38 60
38 63
38 70
38 86
38 93
38 133
38 144
38 163
38 207
38 211
38 230
38 242
39 46
39 61
39 94
39 135
39 145
39 159
39 164
39 208
39 213
39 231
39 243
40 46
40 49
40 65
40 87
40 138
40 148
40 161
40 166
40 210
40 216
40 232
40 244
41 47
41 50
41 88
41 95
41 139
41 150
41 162
41 212
41 233
41 245
42 48
42 51
42 64
42 85
42 90
42 141
42 152
42 167
42 214
42 218
42 234
42 246
43 49
43 52
43 86
43 143
43 153
43 163
43 168
43 215
43 220
43 235
43 247
44 52
44 55
44 68
44 91
44 132
44 146
44 158
44 165
44 202
44 217
44 236
44 248
45 53
45 56
45 87
45 92
45 134
45 147
45 166
45 219
45 237
45 249
46 52
46 58
46 87
46 94
46 120
46 127
46 135
46 148
46 181
46 191
46 203
46 220
46 226
46 237
46 239
46 248
47 53
47 59
47 88
47 112
47 121
47 136
47 150
47 205
47 227
47 249
47 250
48 54
48 60
48 90
48 128
48 152
48 182
48 192
48 207
48 238
48 251
49 55
49 61
49 107
49 114
49 122
49 129
49 138
49 153
49 178
49 183
49 202
49 208
49 239
49 240
49 251
49 252
50 56
50 62
50 95
50 123
50 139
50 179
50 184
50 241
50 252
51 57
51 63
51 85
51 109
51 118
51 131
51 141
51 180
51 185
51 204
51 228
51 242
51 253
52 58
52 86
52 91
52 119
52 124
52 132
52 143
52 181
52 186
52 206
52 210
52 229
52 230
52 240
52 243
53 59
53 92
53 104
53 125
53 134
53 144
53 212
53 231
53 241
53 254
54 60
54 94
54 120
54 136
54 182
54 187
54 214
54 242
54 255
55 61
55 106
55 111
55 121
55 126
55 137
55 146
55 183
55 188
55 209
55 215
55 243
55 244
55 255
55 256
56 62
56 87
56 127
56 147
56 184
56 189
56 245
56 256
57 63
57 89
57 113
57 122
57 139
57 149
57 185
57 190
57 211
57 232
57 246
57 257
58 90
58 95
58 123
58 128
58 140
58 151
58 186
58 191
58 213
58 217
58 233
58 234
58 244
58 247
59 96
59 108
59 129
59 142
59 152
59 219
59 235
59 245
59 258
60 86
60 124
60 144
60 187
60 192
60 221
60 246
60 259
61 103
61 110
61 118
61 125
61 130
61 145
61 178
61 188
61 216
61 222
61 247
61 248
61 259
61 260
62 91
62 119
62 131
62 179
62 189
62 249
62 260
63 93
63 105
63 126
63 133
63 147
63 180
63 190
63 218
63 236
63 238
63 261
64 82
64 167
64 228
64 262
65 78
65 102
65 161
65 195
65 226
65 253
66 84
66 157
66 252
67 74
67 159
67 232
67 264
68 82
68 98
68 165
68 197
68 230
68 257
69 76
69 161
69 256
70 78
70 163
70 236
70 266
71 74
71 100
71 157
71 193
71 234
71 261
72 80
72 165
72 260
73 112
73 170
73 176
73 248
74 99
74 114
74 171
74 177
74 238
74 240
74 262
74 268
75 102
75 107
75 155
75 169
75 172
75 239
75 241
75 263
76 109
76 243
76 269
76 270
77 104
77 170
77 173
77 240
78 101
78 106
78 171
78 174
78 242
78 244
78 264
78 271
79 98
79 111
79 156
79 172
79 175
79 243
79 245
79 265
80 113
80 247
80 272
80 273
81 108
81 173
81 176
81 244
82 97
82 110
82 174
82 177
82 246
82 248
82 266
82 274
83 100
83 103
83 154
83 169
83 175
83 247
83 249
83 267
84 105
84 239
84 275
84 276
85 135
85 149
85 204
85 261
85 262
85 276
86 136
86 151
86 206
86 221
86 251
87 131
87 140
87 203
87 252
87 269
88 132
88 142
88 205
88 254
88 263
89 133
89 143
89 211
89 253
89 264
89 270
90 135
90 144
90 207
90 213
90 255
91 139
91 148
91 210
91 256
91 272
92 140
92 150
92 212
92 258
92 265
93 141
93 151
93 218
93 257
93 266
93 273
94 143
94 152
94 214
94 220
94 259
95 132
95 147
95 217
95 260
95 275
96 134
96 148
96 219
96 250
96 267
97 98
97 117
97 159
98 116
98 158
98 180
98 270
99 100
99 115
99 163
100 117
100 162
100 185
100 273
101 102
101 116
101 167
102 115
102 166
102 190
102 276
103 121
103 199
103 249
104 129
104 194
104 240
105 122
105 155
105 193
105 239
105 268
106 118
106 242
106 270
107 125
107 200
107 241
108 121
108 196
108 244
109 126
109 156
109 195
109 243
109 271
110 122
110 246
110 273
111 129
111 201
111 245
112 125
112 198
112 248
113 118
113 154
113 197
113 247
113 274
114 126
114 238
114 276
115 223
115 250
115 253
115 262
115 263
116 224
116 254
116 257
116 264
116 265
117 225
117 258
117 261
117 266
117 267
118 159
118 167
118 206
118 221
118 228
118 268
118 276
119 160
119 168
119 222
119 229
119 277
120 157
120 161
120 209
120 226
120 269
121 158
121 162
121 203
121 227
122 159
122 163
122 207
122 213
122 232
122 270
122 271
123 160
123 164
123 208
123 233
123 278
124 161
124 165
124 216
124 230
124 272
125 162
125 166
125 210
125 231
126 163
126 167
126 214
126 220
126 236
126 273
126 274
127 164
127 168
127 215
127 237
127 279
128 157
128 165
128 202
128 234
128 275
129 158
129 166
129 217
129 235
130 135
130 151
130 170
130 201
130 248
130 251
130 261
131 136
131 152
131 199
131 249
131 252
131 277
131 280
132 137
132 153
132 177
132 240
132 280
133 171
133 238
133 253
133 281
134 169
134 241
134 250
135 138
135 172
135 239
135 277
135 281
135 282
136 139
136 242
136 251
136 282
137 140
137 243
137 252
137 254
138 143
138 173
138 199
138 240
138 253
138 255
139 144
139 200
139 241
139 256
139 278
139 283
140 145
140 171
140 244
140 283
141 174
141 242
141 257
141 284
142 172
142 245
142 254
143 146
143 175
143 243
143 278
143 284
143 285
144 147
144 246
144 255
144 285
145 148
145 247
145 256
145 258
146 151
146 176
146 200
146 244
146 257
146 259
147 152
147 201
147 245
147 260
147 279
147 286
148 153
148 174
148 248
148 286
149 177
149 246
149 261
149 287
150 175
150 249
150 258
151 169
151 247
151 279
151 287
151 288
152 238
152 259
152 288
153 239
153 250
153 260
154 205
155 212
156 219
157 228
157 275
157 280
158 198
158 225
158 229
159 195
159 226
159 268
159 270
159 281
160 227
160 282
161 232
161 269
161 283
162 194
162 223
162 233
163 197
163 230
163 271
163 273
163 284
164 231
164 285
165 236
165 272
165 286
166 196
166 224
166 237
167 193
167 234
167 274
167 276
167 287
168 235
168 288
169 181
169 227
169 237
169 267
170 179
170 183
171 181
171 185
171 228
171 230
171 264
172 186
172 229
172 231
172 263
173 184
173 188
174 186
174 190
174 232
174 234
174 266
175 191
175 233
175 235
175 265
176 178
176 189
177 180
177 191
177 226
177 236
177 262
178 203
178 220
179 205
179 280
180 207
180 281
181 202
181 208
181 280
181 282
182 204
182 282
183 206
183 210
184 212
184 283
185 214
185 284
186 209
186 215
186 283
186 285
187 211
187 285
188 213
188 217
189 219
189 286
190 221
190 287
191 216
191 222
191 286
191 288
192 218
192 288
193 261
193 268
194 254
195 253
195 271
196 258
197 257
197 274
198 250
199 277
200 278
201 279
202 248
202 251
202 280
203 240
204 238
204 253
204 282
205 223
205 241
205 250
205 280
206 239
207 242
207 251
207 281
208 243
208 252
208 282
209 240
209 255
209 283
210 244
211 242
211 257
211 285
212 224
212 245
212 254
212 283
213 243
214 246
214 255
214 284
215 247
215 256
215 285
216 244
216 259
216 286
217 248
218 246
218 261
218 288
219 225
219 249
219 258
219 286
220 247
221 238
221 259
221 287
222 239
222 260
222 288
223 228
224 232
225 236
226 281
227 263
227 282
228 262
228 280
229 277
230 284
231 265
231 285
232 264
232 283
233 278
234 287
235 267
235 288
236 266
236 286
237 279
238 251
238 261
238 268
239 252
239 276
240 251
241 252
241 254
242 253
242 255
242 271
243 256
243 270
244 255
245 256
245 258
246 257
246 259
246 274
247 260
247 273
248 259
249 250
249 260
251 282
252 280
253 281
255 285
256 283
257 284
259 288
260 286
261 287
262 276
264 270
266 273
277 282
278 285
279 288
