0 137
0 138
0 139
0 140
0 141
0 142
0 143
0 144
0 145
0 146
0 147
0 148
0 149
0 150
0 151
0 152
0 153
0 154
0 155
0 156
0 157
0 158
0 159
0 160
1 114
1 115
1 121
1 124
1 129
1 133
1 144
1 156
1 163
1 171
1 182
1 183
1 184
1 197
2 130
2 134
2 158
2 164
2 172
2 173
2 174
2 185
3 116
3 117
3 122
3 132
3 136
3 137
3 149
3 162
3 166
3 174
3 176
3 186
3 187
3 198
4 118
4 119
4 122
4 125
4 133
4 140
4 152
4 163
4 167
4 175
4 177
4 187
4 189
4 199
5 126
5 134
5 142
5 164
5 168
5 176
5 178
5 188
5 190
6 127
6 135
6 155
6 165
6 169
6 177
6 179
6 190
6 192
7 108
7 109
7 120
7 128
7 136
7 145
7 157
7 166
7 170
7 178
7 180
7 191
7 193
7 200
8 110
8 111
8 120
8 125
8 129
8 148
8 160
8 167
8 171
8 179
8 181
8 193
8 194
8 201
9 127
9 131
9 139
9 161
9 169
9 181
9 182
9 195
10 112
10 113
10 121
10 123
10 128
10 132
10 141
10 153
10 162
10 170
10 173
10 183
10 196
10 202
11 93
11 94
11 104
11 105
11 121
11 122
11 173
11 175
11 197
11 198
12 84
12 99
12 100
12 107
12 120
12 122
12 176
12 179
12 199
12 200
13 89
13 90
13 102
13 103
13 120
13 121
13 180
13 182
13 201
13 202
14 80
14 95
14 113
14 145
14 159
14 183
14 204
14 208
14 209
15 79
15 92
15 96
15 118
15 146
15 160
15 187
15 203
15 210
15 211
16 81
16 96
16 98
16 139
16 151
16 186
16 190
16 214
17 72
17 85
17 97
17 117
17 143
17 153
17 187
17 192
17 216
18 83
18 86
18 98
18 110
18 144
18 154
18 188
18 193
18 217
19 74
19 85
19 87
19 146
19 158
19 190
19 194
19 219
20 76
20 87
20 91
20 109
20 137
20 151
20 193
20 206
20 222
20 223
21 75
21 88
21 114
21 138
21 152
21 183
21 205
21 224
21 225
22 77
22 80
22 105
22 164
22 171
22 209
23 72
23 81
23 100
23 106
23 163
23 168
24 74
24 83
24 101
24 107
24 165
24 170
25 75
25 78
25 102
25 162
25 169
25 224
26 58
26 59
26 76
26 80
26 116
26 128
26 134
26 174
26 206
26 208
26 239
27 60
27 61
27 69
27 77
27 81
27 118
27 129
27 135
27 175
27 182
27 207
27 212
27 227
27 229
28 61
28 62
28 70
28 78
28 82
28 113
28 130
28 136
28 173
28 176
28 213
28 228
28 230
29 63
29 64
29 79
29 83
29 115
29 125
29 131
29 177
29 211
29 240
30 64
30 72
30 80
30 108
30 126
30 132
30 174
30 178
30 204
30 216
31 50
31 65
31 71
31 73
31 81
31 110
31 127
31 133
31 175
31 179
31 214
31 218
31 231
31 233
32 50
32 51
32 66
32 74
32 82
32 117
32 128
32 134
32 176
32 180
32 215
32 219
32 232
32 234
33 52
33 75
33 83
33 119
33 129
33 135
33 177
33 181
33 205
33 217
34 52
34 53
34 72
34 76
34 112
34 130
34 136
34 178
34 222
34 241
35 54
35 55
35 67
35 73
35 77
35 114
35 125
35 131
35 179
35 182
35 220
35 235
35 237
36 55
36 56
36 68
36 74
36 78
36 109
36 126
36 132
36 173
36 180
36 221
36 226
36 236
36 238
37 57
37 58
37 75
37 79
37 111
37 127
37 133
37 181
37 203
37 225
37 242
38 57
38 60
38 90
38 95
38 143
38 156
38 163
38 209
38 227
38 242
38 243
39 58
39 61
39 68
39 91
39 96
39 144
39 158
39 164
39 171
39 211
39 226
39 228
39 244
40 61
40 64
40 71
40 98
40 137
40 147
40 161
40 166
40 208
40 214
40 229
40 245
41 62
41 92
41 99
41 138
41 149
41 162
41 210
41 215
41 230
41 246
42 63
42 65
42 85
42 94
42 140
42 151
42 167
42 212
42 231
42 240
42 247
43 50
43 64
43 70
43 86
43 95
43 142
43 152
43 163
43 168
43 213
43 217
43 232
43 248
44 50
44 52
44 67
44 88
44 97
44 145
44 155
44 165
44 170
44 216
44 220
44 233
44 249
45 51
45 53
45 89
45 98
45 146
45 157
45 166
45 221
45 234
45 241
45 250
46 54
46 84
46 91
46 148
46 159
46 171
46 218
46 223
46 235
46 251
47 52
47 55
47 66
47 85
47 150
47 160
47 167
47 172
47 219
47 225
47 236
47 252
48 55
48 58
48 69
48 87
48 92
48 139
48 153
48 162
48 169
48 207
48 222
48 237
48 253
49 56
49 59
49 88
49 93
49 141
49 154
49 170
49 224
49 238
49 239
49 254
50 55
50 61
50 88
50 95
50 127
50 134
50 142
50 155
50 185
50 195
50 208
50 225
50 227
50 238
50 244
50 253
50 255
50 262
51 56
51 62
51 89
51 96
51 117
51 128
51 143
51 157
51 186
51 196
51 210
51 228
51 254
51 263
52 58
52 64
52 97
52 112
52 119
52 129
52 136
52 145
52 160
52 183
52 187
52 207
52 213
52 244
52 245
52 256
52 257
52 264
52 265
53 59
53 98
53 130
53 146
53 188
53 246
53 265
54 60
54 65
54 84
54 114
54 125
54 138
54 148
54 184
54 189
54 209
54 229
54 247
54 266
55 61
55 85
55 92
55 126
55 131
55 139
55 150
55 185
55 190
55 211
55 216
55 230
55 231
55 245
55 248
55 258
55 267
56 62
56 86
56 93
56 109
56 132
56 141
56 151
56 186
56 191
56 232
56 246
56 267
56 268
57 63
57 95
57 127
57 143
57 192
57 218
57 247
57 269
58 64
58 87
58 96
58 111
58 116
58 128
58 133
58 144
58 153
58 187
58 193
58 214
58 219
58 248
58 249
58 269
58 270
59 88
59 134
59 154
59 188
59 215
59 250
59 270
60 65
60 90
60 97
60 118
60 129
60 146
60 156
60 189
60 194
60 233
60 251
60 271
60 272
61 91
61 98
61 130
61 135
61 147
61 158
61 190
61 195
61 217
61 222
61 234
61 235
61 249
61 252
61 259
61 272
62 99
62 113
62 136
62 149
62 159
62 191
62 196
62 224
62 236
62 250
62 273
63 85
63 131
63 151
63 192
63 251
63 274
64 86
64 108
64 115
64 125
64 132
64 137
64 152
64 183
64 193
64 220
64 226
64 252
64 253
64 260
64 261
64 274
64 275
65 87
65 94
65 110
65 133
65 140
65 154
65 184
65 194
65 223
65 237
65 243
65 276
66 82
66 103
66 123
66 172
66 202
66 230
66 255
66 263
67 77
67 107
67 165
67 199
67 227
67 258
67 266
68 74
68 105
68 164
68 198
68 234
68 268
69 81
69 102
69 169
69 201
69 231
69 271
70 78
70 100
70 168
70 200
70 238
70 259
70 273
71 73
71 104
71 124
71 161
71 197
71 235
71 262
71 276
72 106
72 117
72 174
72 253
72 256
72 283
73 103
73 119
73 175
73 182
73 243
73 245
73 255
73 277
74 107
74 112
74 173
74 176
74 244
74 246
74 258
74 278
75 114
75 177
75 248
75 257
75 284
76 109
76 174
76 178
76 245
76 285
77 105
77 111
77 175
77 179
77 247
77 249
77 279
78 102
78 116
78 176
78 180
78 248
78 250
78 280
79 118
79 177
79 181
79 252
79 286
80 113
80 178
80 249
80 260
80 287
81 100
81 115
81 179
81 182
81 251
81 253
81 259
81 281
82 104
82 108
82 173
82 180
82 252
82 254
82 262
82 282
83 101
83 110
83 181
83 244
83 261
83 288
84 142
84 156
84 209
84 276
84 277
84 288
84 289
85 143
85 158
85 211
85 264
86 144
86 159
86 226
86 265
87 137
87 146
87 214
87 264
88 138
88 147
88 208
88 215
88 265
88 267
89 139
89 149
89 210
89 268
89 278
89 285
90 140
90 150
90 266
90 279
90 284
91 142
91 151
91 212
91 217
91 269
92 146
92 155
92 216
92 221
92 270
93 147
93 157
93 273
93 280
93 287
94 148
94 158
94 223
94 271
94 281
94 286
95 150
95 159
95 218
95 225
95 272
95 274
96 151
96 160
96 219
96 275
97 138
97 153
97 207
97 274
98 139
98 154
98 222
98 275
99 141
99 155
99 224
99 263
99 282
99 283
99 289
100 102
100 122
100 163
100 186
100 283
101 165
101 188
102 121
102 162
102 184
102 284
103 104
103 120
103 167
103 191
103 285
104 122
104 166
104 189
104 286
105 107
105 121
105 171
105 196
105 287
106 168
106 192
107 120
107 170
107 194
107 288
108 128
108 204
108 254
108 283
108 294
109 136
109 198
109 239
109 245
110 129
110 197
110 240
110 244
110 292
111 125
111 203
111 247
111 284
111 292
112 132
112 246
112 285
112 295
113 128
113 200
113 249
114 133
114 199
114 248
115 129
115 251
115 286
115 296
116 136
116 206
116 250
116 287
116 293
117 132
117 202
117 241
117 253
117 293
118 125
118 201
118 242
118 252
119 133
119 205
119 243
119 288
119 297
120 263
120 266
120 277
120 278
121 268
121 271
121 279
121 280
122 273
122 276
122 281
122 282
123 141
123 150
123 230
123 232
123 295
124 147
124 156
124 233
124 235
124 296
125 163
125 171
125 211
125 229
125 288
126 164
126 172
126 226
126 230
126 294
126 298
127 161
127 165
127 214
127 227
128 162
128 166
128 208
128 215
128 228
128 285
129 163
129 167
129 212
129 217
129 233
129 284
130 164
130 168
130 213
130 234
130 295
130 299
131 165
131 169
131 220
131 231
131 296
131 300
132 166
132 170
132 216
132 221
132 232
132 287
133 167
133 171
133 218
133 225
133 237
133 286
134 168
134 172
134 219
134 238
135 161
135 169
135 207
135 235
135 297
135 301
136 162
136 170
136 222
136 236
136 283
137 142
137 158
137 174
137 206
137 253
137 264
137 276
138 143
138 159
138 204
138 254
138 265
138 289
138 290
138 298
138 302
139 144
139 160
139 182
139 245
139 302
140 175
140 243
140 266
140 292
141 173
141 246
141 263
142 145
142 176
142 244
142 298
142 303
143 146
143 203
143 247
143 264
143 267
143 290
143 303
143 304
144 147
144 248
144 265
144 268
144 292
144 304
145 150
145 178
145 204
145 245
145 266
145 269
146 151
146 246
146 270
146 299
147 152
147 175
147 249
147 267
147 300
148 179
148 247
148 271
149 176
149 250
149 268
150 153
150 180
150 248
150 272
150 299
151 154
151 251
151 269
151 300
152 155
152 177
152 205
152 252
152 270
152 273
153 158
153 249
153 271
153 274
153 293
153 305
154 159
154 206
154 250
154 272
154 275
154 291
154 305
154 306
155 160
155 179
155 253
155 301
155 306
156 182
156 251
156 276
157 180
157 254
157 273
157 293
158 173
158 252
158 307
159 205
159 243
159 274
159 289
159 291
159 301
159 307
160 181
160 203
160 244
160 263
160 275
161 229
161 262
161 302
162 202
162 230
162 257
162 283
163 199
163 227
163 256
163 284
163 304
164 228
164 303
165 233
165 258
166 198
166 234
166 285
167 201
167 231
167 286
168 232
168 259
169 237
169 306
170 200
170 238
170 261
170 287
170 305
171 197
171 235
171 260
171 288
172 236
172 255
172 307
173 185
173 196
173 228
173 238
173 282
174 187
175 185
175 189
175 229
175 231
175 279
175 292
176 186
176 190
176 230
176 232
176 278
177 187
177 192
178 188
178 193
179 190
179 194
179 233
179 235
179 281
180 191
180 195
180 234
180 236
180 280
180 293
181 193
182 184
182 195
182 227
182 237
182 277
183 208
183 225
183 256
183 261
184 212
185 207
185 213
185 255
185 258
185 302
185 303
186 304
187 211
187 216
187 257
187 304
189 218
190 214
190 219
191 215
193 217
193 222
193 260
193 305
194 305
195 220
195 226
195 259
195 262
195 306
195 307
196 221
197 276
198 268
199 266
200 273
201 271
202 263
203 242
203 257
204 256
204 298
205 261
205 301
206 239
206 260
207 253
207 264
207 297
207 302
208 239
208 245
209 243
209 266
209 303
210 246
210 263
210 302
211 240
211 244
211 304
212 247
212 264
213 248
213 265
213 295
213 303
214 245
214 269
215 246
215 270
216 249
216 267
217 248
217 272
218 251
218 269
219 252
219 270
220 249
220 274
220 296
220 306
221 250
221 275
222 241
222 253
222 305
223 251
223 276
223 307
224 254
224 273
224 306
225 242
225 252
226 244
226 275
226 294
226 307
227 242
228 278
228 294
228 303
229 277
229 302
230 298
231 240
231 300
232 280
232 295
233 279
233 296
234 241
234 299
235 301
236 282
236 307
237 281
237 297
237 306
238 239
240 292
241 293
243 264
243 276
243 297
244 265
244 288
245 264
245 267
245 285
246 265
246 268
246 295
247 266
247 269
248 270
248 284
249 269
249 287
250 270
250 273
251 271
251 274
251 296
252 272
252 275
252 286
253 274
253 283
254 263
254 275
254 294
255 262
255 298
256 257
256 283
257 284
260 261
260 287
261 288
262 301
263 290
264 303
265 302
265 304
266 290
267 304
272 305
273 291
274 305
274 307
275 306
276 291
277 288
278 285
279 284
280 287
281 286
282 283
284 292
287 293
294 298
295 299
296 300
297 301
298 303
301 306
