0 167
0 168
0 171
0 172
0 175
0 176
0 178
0 181
0 182
0 185
1 166
1 169
1 170
1 173
1 174
1 177
1 179
1 180
1 183
1 184
2 142
2 143
2 148
2 149
2 156
2 157
2 164
2 165
2 168
2 169
2 182
2 183
2 186
2 187
2 194
2 195
2 208
2 209
3 140
3 141
3 146
3 147
3 154
3 155
3 162
3 163
3 166
3 167
3 184
3 185
3 188
3 189
3 196
3 197
3 210
3 211
4 136
4 142
4 151
4 161
4 181
4 191
4 212
4 216
5 137
5 143
5 150
5 160
5 180
5 190
5 213
5 217
6 134
6 140
6 153
6 159
6 179
6 193
6 214
6 218
7 135
7 141
7 152
7 158
7 178
7 192
7 215
7 219
8 131
8 132
8 147
8 148
8 194
8 197
9 130
9 133
9 146
9 149
9 195
9 196
10 112
10 116
10 124
10 128
10 149
10 151
10 173
10 179
10 198
10 201
10 209
10 212
10 220
10 224
10 232
10 236
11 113
11 117
11 125
11 129
11 148
11 150
11 172
11 178
11 199
11 200
11 208
11 213
11 221
11 225
11 233
11 237
12 110
12 114
12 122
12 126
12 147
12 153
12 171
12 181
12 199
12 203
12 211
12 214
12 222
12 226
12 234
12 238
13 111
13 115
13 123
13 127
13 146
13 152
13 170
13 180
13 198
13 202
13 210
13 215
13 223
13 227
13 235
13 239
14 100
14 108
14 125
14 132
14 157
14 163
14 171
14 185
14 216
14 225
14 242
14 246
15 101
15 109
15 124
15 133
15 145
15 156
15 162
15 170
15 184
15 217
15 224
15 243
15 247
16 98
16 106
16 123
16 130
16 144
16 155
16 165
16 173
16 183
16 218
16 227
16 244
16 248
17 99
17 107
17 122
17 131
17 154
17 164
17 172
17 182
17 219
17 226
17 245
17 249
18 100
18 104
18 112
18 131
18 135
18 181
18 219
18 228
18 236
19 101
19 105
19 113
19 130
19 134
19 180
19 218
19 229
19 237
20 98
20 102
20 110
20 133
20 137
20 179
20 217
20 230
20 238
21 99
21 103
21 111
21 132
21 136
21 178
21 216
21 231
21 239
22 100
22 116
22 121
22 137
22 152
22 187
22 204
22 236
22 243
22 246
23 101
23 117
23 120
23 136
23 153
23 186
23 205
23 237
23 242
23 247
24 98
24 114
24 119
24 135
24 150
24 189
24 206
24 238
24 245
24 248
25 99
25 115
25 118
25 134
25 151
25 188
25 207
25 239
25 244
25 249
26 86
26 112
26 119
26 141
26 159
26 197
26 200
26 232
26 252
27 87
27 113
27 118
27 140
27 158
27 196
27 201
27 233
27 253
28 84
28 110
28 121
28 143
28 161
28 195
28 202
28 234
28 254
29 85
29 111
29 120
29 142
29 160
29 194
29 203
29 235
29 255
30 74
30 78
30 90
30 96
30 101
30 151
30 163
30 216
30 220
30 243
30 256
30 260
31 75
31 79
31 91
31 97
31 100
31 139
31 150
31 162
31 217
31 221
31 242
31 257
32 72
32 76
32 88
32 94
32 99
32 138
32 153
32 165
32 218
32 222
32 245
32 258
33 73
33 77
33 89
33 95
33 98
33 152
33 164
33 219
33 223
33 244
33 259
33 261
34 82
34 85
34 95
34 124
34 190
34 236
35 83
35 84
35 94
35 125
35 191
35 237
36 80
36 87
36 97
36 122
36 192
36 238
37 81
37 86
37 96
37 123
37 193
37 239
38 66
38 70
38 121
38 165
38 195
38 212
38 262
39 67
39 71
39 120
39 164
39 194
39 213
40 64
40 68
40 119
40 163
40 197
40 214
41 65
41 69
41 118
41 162
41 196
41 215
41 263
42 62
42 66
42 74
42 86
42 93
42 113
42 127
42 135
42 155
42 173
42 189
42 201
42 215
42 225
42 228
42 240
42 252
42 260
42 262
43 63
43 67
43 75
43 87
43 93
43 112
43 126
43 134
43 145
43 154
43 172
43 188
43 200
43 214
43 224
43 229
43 240
43 250
43 253
44 60
44 64
44 72
44 84
44 92
44 111
44 129
44 137
44 144
44 157
44 171
44 187
44 203
44 213
44 227
44 230
44 241
44 251
44 254
45 61
45 65
45 73
45 85
45 92
45 110
45 128
45 136
45 156
45 170
45 186
45 202
45 212
45 226
45 231
45 241
45 255
45 261
45 263
46 66
46 79
46 90
46 129
46 182
46 187
46 233
46 260
46 264
47 67
47 78
47 91
47 128
47 183
47 186
47 232
47 265
48 64
48 77
48 88
48 127
48 184
48 189
48 235
48 266
49 65
49 76
49 89
49 126
49 185
49 188
49 234
49 261
49 267
50 56
50 59
50 66
50 85
50 107
50 125
50 147
50 175
50 181
50 191
50 242
50 268
51 57
51 58
51 67
51 84
51 106
51 124
51 146
51 174
51 180
51 190
51 243
51 251
51 269
52 54
52 58
52 64
52 87
52 109
52 123
52 149
52 177
52 179
52 193
52 244
52 250
52 270
53 55
53 59
53 65
53 86
53 108
53 122
53 148
53 176
53 178
53 192
53 245
53 271
54 70
54 93
54 95
54 115
54 149
54 207
54 223
54 224
54 262
54 272
55 71
55 93
55 94
55 114
55 148
55 206
55 222
55 225
55 273
56 68
56 92
56 97
56 117
56 147
56 205
56 221
56 226
56 274
57 69
57 92
57 96
57 116
57 146
57 204
57 220
57 227
57 263
57 275
58 77
58 78
58 123
58 124
58 174
58 177
58 232
58 235
58 272
58 275
59 76
59 79
59 122
59 125
59 175
59 176
59 233
59 234
59 273
59 274
60 71
60 85
60 144
60 157
60 173
60 209
60 225
60 231
60 276
61 70
61 84
61 156
61 172
61 208
61 224
61 230
61 277
62 69
62 87
62 155
62 171
62 211
62 227
62 229
62 278
63 68
63 86
63 145
63 154
63 170
63 210
63 226
63 228
63 279
64 67
64 109
64 127
64 137
64 179
64 198
64 243
64 252
64 265
64 280
65 66
65 108
65 126
65 136
65 178
65 199
65 242
65 253
65 264
65 281
66 107
66 129
66 135
66 181
66 199
66 245
66 254
66 267
66 282
67 106
67 128
67 134
67 180
67 198
67 244
67 255
67 266
67 283
68 86
68 97
68 163
68 166
68 280
69 87
69 96
69 162
69 167
69 260
69 281
70 84
70 95
70 165
70 168
70 261
70 282
71 85
71 94
71 164
71 169
71 283
72 83
72 103
72 129
72 153
72 171
72 216
72 237
73 82
73 102
73 128
73 152
73 170
73 217
73 236
74 81
74 105
74 127
74 151
74 173
74 218
74 239
75 80
75 104
75 126
75 150
75 172
75 219
75 238
76 79
76 138
76 155
76 165
76 185
76 257
76 264
76 268
76 284
77 78
77 154
77 164
77 184
77 250
77 256
77 265
77 269
77 285
78 157
78 163
78 183
78 251
78 259
78 266
78 270
78 286
79 139
79 156
79 162
79 182
79 258
79 267
79 271
79 287
80 95
80 107
80 219
80 240
80 284
81 94
81 106
81 218
81 240
81 285
82 97
82 109
82 217
82 241
82 286
83 96
83 108
83 216
83 241
83 287
84 111
84 125
84 143
84 190
84 208
84 246
84 255
84 276
84 288
85 110
85 124
85 142
85 191
85 209
85 247
85 254
85 277
85 289
86 113
86 123
86 141
86 192
86 210
86 248
86 253
86 278
86 290
87 112
87 122
87 140
87 193
87 211
87 249
87 252
87 279
87 291
88 101
88 189
88 256
88 272
89 100
89 188
89 257
89 273
90 99
90 187
90 258
90 274
91 98
91 186
91 259
91 275
92 186
92 187
92 204
92 205
92 280
92 281
93 188
93 189
93 206
93 207
93 282
93 283
94 99
94 191
94 207
94 284
94 288
95 98
95 190
95 206
95 285
95 289
96 101
96 193
96 205
96 286
96 290
97 100
97 192
97 204
97 287
97 291
98 137
98 144
98 165
98 257
98 265
98 272
99 136
99 164
99 256
99 264
99 273
99 292
100 135
100 163
100 259
100 267
100 274
100 293
101 134
101 145
101 162
101 258
101 266
101 275
102 158
102 174
102 236
102 276
103 159
103 175
103 237
103 277
104 160
104 176
104 238
104 278
105 161
105 177
105 239
105 279
106 173
106 240
106 280
106 288
107 172
107 240
107 281
107 289
108 171
108 241
108 282
108 290
109 170
109 241
109 283
109 291
110 133
110 138
110 153
110 169
110 179
110 195
110 212
110 247
110 268
110 276
111 132
111 152
111 168
111 178
111 194
111 213
111 246
111 269
111 277
111 292
112 131
112 151
112 167
112 181
112 197
112 214
112 249
112 270
112 278
112 293
113 130
113 139
113 150
113 166
113 180
113 196
113 215
113 248
113 271
113 279
114 117
114 119
114 147
114 189
114 225
115 116
115 118
115 146
115 188
115 224
115 292
116 121
116 149
116 187
116 227
116 293
117 120
117 148
117 186
117 226
118 201
118 215
118 264
119 200
119 214
119 265
120 203
120 213
120 266
121 202
121 212
121 267
122 131
122 171
122 182
122 233
122 281
122 284
123 130
123 170
123 183
123 232
123 262
123 280
123 285
124 133
124 173
124 184
124 235
124 263
124 283
124 286
125 132
125 172
125 185
125 234
125 282
125 287
126 181
126 242
126 255
126 284
126 294
127 180
127 243
127 254
127 285
127 295
128 179
128 244
128 253
128 286
128 296
129 178
129 245
129 252
129 287
129 297
130 149
130 208
130 262
130 275
131 148
131 209
131 274
132 147
132 210
132 273
133 146
133 211
133 263
133 272
134 159
134 207
134 224
135 158
135 206
135 225
136 161
136 205
136 226
137 160
137 204
137 227
138 156
138 222
138 292
138 295
139 155
139 221
139 293
139 296
140 155
140 166
140 179
140 252
140 268
141 154
141 167
141 178
141 253
141 260
141 269
142 157
142 168
142 181
142 254
142 261
142 270
143 156
143 169
143 180
143 255
143 271
144 164
144 208
144 230
144 265
144 289
144 299
145 163
145 211
145 229
145 266
145 290
145 300
146 198
146 243
146 272
146 298
147 199
147 242
147 273
147 299
148 199
148 245
148 274
148 300
149 198
149 244
149 275
149 301
150 158
150 200
150 271
151 159
151 201
151 270
152 160
152 202
152 269
153 161
153 203
153 268
154 189
154 219
154 240
154 256
154 294
154 298
155 188
155 218
155 240
155 257
155 295
155 299
156 187
156 217
156 241
156 258
156 296
156 300
157 186
157 216
157 241
157 259
157 297
157 301
158 233
159 232
160 235
161 234
162 242
162 260
162 275
162 291
162 302
163 243
163 274
163 290
163 303
164 244
164 273
164 289
164 304
165 245
165 261
165 272
165 288
165 305
166 197
166 279
166 302
166 306
167 196
167 278
167 303
167 307
168 195
168 277
168 304
168 307
169 194
169 276
169 305
169 306
170 173
170 223
170 224
170 280
170 298
170 302
171 172
171 222
171 225
171 281
171 299
171 303
172 221
172 226
172 282
172 300
172 304
173 220
173 227
173 283
173 301
173 305
174 179
174 220
174 276
174 298
175 178
175 221
175 277
175 299
176 181
176 222
176 278
176 300
177 180
177 223
177 279
177 301
178 185
178 215
178 225
178 231
178 264
178 294
179 184
179 214
179 224
179 230
179 265
179 295
180 183
180 213
180 227
180 229
180 266
180 296
181 182
181 212
181 226
181 228
181 267
181 297
182 271
182 284
182 297
182 306
183 270
183 285
183 296
183 307
184 269
184 286
184 295
184 307
185 268
185 287
185 294
185 306
186 208
186 242
186 255
186 275
187 209
187 243
187 254
187 274
187 292
188 210
188 244
188 253
188 273
188 293
189 211
189 245
189 252
189 272
190 204
191 205
192 206
193 207
194 198
194 209
194 288
195 199
195 208
195 289
196 199
196 211
196 290
197 198
197 210
197 291
198 232
198 235
199 233
199 234
200 252
201 253
201 260
202 254
202 261
203 255
204 280
205 281
206 282
207 283
208 237
208 276
209 236
209 277
210 239
210 278
211 238
211 279
212 236
212 305
212 308
213 237
213 304
213 309
214 238
214 303
214 310
215 239
215 302
215 311
216 246
216 297
216 308
217 247
217 296
217 309
218 248
218 295
218 310
219 249
219 294
219 311
220 260
220 275
220 298
220 308
221 274
221 299
221 309
222 273
222 300
222 310
223 261
223 272
223 301
223 311
224 298
225 299
226 300
227 301
228 279
228 311
229 278
229 310
230 277
230 309
231 276
231 308
232 265
233 264
234 267
235 266
240 284
240 285
241 286
241 287
242 247
242 268
242 281
243 246
243 260
243 269
243 280
244 249
244 261
244 270
244 283
245 248
245 271
245 282
250 270
250 285
250 304
251 269
251 286
251 303
252 260
252 291
253 290
254 289
255 261
255 288
256 298
257 299
258 300
259 301
262 272
263 275
264 284
264 292
265 285
266 286
267 287
267 293
268 306
269 307
270 307
271 306
272 275
272 298
273 274
273 292
273 299
274 293
274 300
275 301
276 308
277 309
278 310
279 311
284 288
284 294
285 289
285 295
286 290
286 296
287 291
287 297
288 305
289 304
290 303
291 302
294 297
294 311
295 296
295 310
296 309
297 308
302 311
303 310
304 309
305 308
