0 155
0 156
0 157
0 158
0 159
0 160
0 161
0 162
0 163
0 164
0 165
0 166
0 167
0 168
0 169
0 170
0 171
0 172
0 173
0 174
0 175
0 176
0 177
0 178
1 134
1 139
1 141
1 147
1 151
1 162
1 181
1 189
1 192
1 202
1 204
2 125
2 135
2 140
2 148
2 152
2 163
2 175
2 182
2 190
2 191
2 193
2 203
3 126
3 128
3 135
3 141
3 149
3 153
3 166
3 178
3 179
3 183
3 192
3 194
3 206
4 127
4 129
4 136
4 150
4 154
4 156
4 180
4 184
4 193
4 195
4 205
5 130
5 136
5 142
5 143
5 151
5 159
5 169
5 181
5 185
5 194
5 196
5 208
5 215
6 131
6 137
6 144
6 152
6 160
6 182
6 186
6 195
6 197
6 207
6 216
7 131
7 142
7 145
7 153
7 173
7 183
7 187
7 196
7 198
7 210
7 217
8 119
8 132
8 137
8 146
8 154
8 164
8 174
8 184
8 188
8 197
8 199
8 209
8 218
9 120
9 122
9 132
9 143
9 147
9 177
9 185
9 189
9 198
9 200
9 212
10 121
10 123
10 133
10 138
10 144
10 148
10 155
10 167
10 186
10 190
10 199
10 201
10 211
11 124
11 133
11 139
11 145
11 149
11 158
11 170
11 179
11 187
11 200
11 202
11 214
12 134
12 138
12 140
12 146
12 150
12 171
12 180
12 188
12 191
12 201
12 213
13 102
13 103
13 114
13 115
13 133
13 135
13 192
13 201
14 105
14 106
14 116
14 134
14 136
14 191
14 194
15 107
15 108
15 117
15 131
15 135
15 193
15 196
15 216
16 95
16 110
16 111
16 118
16 132
16 136
16 195
16 198
16 215
16 218
17 97
17 98
17 112
17 131
17 133
17 197
17 200
17 217
18 99
18 100
18 113
18 132
18 134
18 199
18 202
19 89
19 102
19 105
19 127
19 162
19 174
19 205
19 220
20 94
20 95
20 108
20 128
20 160
20 170
20 206
20 226
21 83
21 97
21 110
21 121
21 163
21 173
21 211
21 229
22 88
22 100
22 103
22 122
22 159
22 171
22 212
22 235
23 88
23 91
23 114
23 116
23 182
23 189
23 219
23 221
24 83
24 92
24 111
24 117
24 181
24 186
24 225
24 227
25 85
25 94
25 112
25 118
25 183
25 188
25 228
25 230
26 86
26 89
26 113
26 115
26 180
26 187
26 234
26 236
27 64
27 65
27 78
27 87
27 91
27 123
27 127
27 146
27 152
27 193
27 201
27 237
28 66
28 67
28 88
28 92
28 124
28 147
28 153
28 194
28 202
28 238
29 67
29 68
29 80
29 89
29 93
29 148
29 154
29 191
29 195
29 220
29 239
29 240
30 69
30 70
30 79
30 90
30 94
30 143
30 149
30 192
30 196
30 226
30 241
31 70
31 71
31 82
31 83
31 91
31 119
31 144
31 150
31 193
31 197
31 223
31 242
32 55
32 72
32 81
32 84
32 92
32 120
32 128
32 145
32 151
32 194
32 198
32 243
33 55
33 56
33 74
33 85
33 93
33 121
33 129
33 146
33 152
33 195
33 199
33 244
34 57
34 58
34 73
34 86
34 94
34 130
34 147
34 153
34 196
34 200
34 232
34 245
35 58
35 59
35 76
35 83
35 87
35 148
35 154
35 197
35 201
35 229
35 246
36 60
36 61
36 75
36 84
36 88
36 143
36 149
36 198
36 202
36 235
36 247
36 248
37 61
37 62
37 85
37 89
37 125
37 144
37 150
37 191
37 199
37 249
38 63
38 64
38 77
38 86
38 90
38 122
38 126
38 145
38 151
38 192
38 200
38 250
39 63
39 66
39 100
39 161
39 181
39 221
39 235
39 238
39 251
40 64
40 67
40 79
40 101
40 162
40 175
40 182
40 189
40 239
40 252
41 65
41 68
41 107
41 163
41 176
41 190
41 219
41 223
41 237
41 253
42 66
42 69
42 103
42 109
42 165
42 178
42 183
42 224
42 254
43 68
43 71
43 104
43 110
43 157
43 180
43 222
43 240
43 255
44 69
44 72
44 106
44 159
44 168
44 185
44 227
44 243
44 256
45 55
45 70
45 73
45 80
45 96
45 160
45 169
45 181
45 186
45 241
45 257
46 56
46 71
46 97
46 161
46 182
46 225
46 229
46 242
46 258
47 57
47 72
47 108
47 172
47 187
47 226
47 230
47 245
47 259
48 55
48 58
48 75
48 82
48 109
48 164
48 173
48 183
48 188
48 246
48 260
49 56
49 59
49 99
49 165
49 174
49 184
49 228
49 244
49 261
50 57
50 60
50 95
50 101
50 176
50 189
50 233
50 247
50 262
51 59
51 62
51 96
51 102
51 155
51 168
51 186
51 231
51 263
52 60
52 63
52 98
52 157
52 170
52 179
52 232
52 236
52 250
52 264
53 61
53 64
53 76
53 104
53 158
53 171
53 180
53 187
53 248
53 265
54 62
54 65
54 105
54 172
54 188
54 220
54 234
54 249
54 266
55 61
55 67
55 121
55 128
55 145
55 152
55 160
55 173
55 238
55 249
55 252
55 265
56 62
56 68
56 99
56 129
56 146
56 161
56 174
56 205
56 213
56 222
56 239
56 253
56 266
56 267
57 63
57 69
57 101
57 108
57 153
57 176
57 206
57 214
57 236
57 251
57 254
57 268
58 64
58 70
58 109
58 130
58 147
58 154
58 164
58 177
58 237
58 252
58 269
59 65
59 71
59 102
59 148
59 155
59 165
59 203
59 207
59 220
59 225
59 253
59 255
59 269
59 270
60 66
60 72
60 95
60 143
60 157
60 204
60 208
60 221
60 226
60 254
60 256
60 271
60 272
61 67
61 104
61 125
61 144
61 149
61 158
61 167
61 240
61 243
61 257
61 272
62 68
62 96
62 105
62 150
62 168
62 205
62 209
62 223
62 228
62 255
62 258
62 273
63 69
63 98
63 126
63 145
63 161
63 170
63 206
63 210
63 224
63 241
63 256
63 259
63 274
64 70
64 122
64 127
64 146
64 151
64 162
64 171
64 242
64 245
64 257
64 260
65 71
65 107
65 123
65 152
65 163
65 172
65 207
65 211
65 231
65 246
65 258
65 261
65 275
66 72
66 100
66 109
66 147
66 165
66 208
66 212
66 227
66 232
66 259
66 262
66 276
67 101
67 124
67 148
67 153
67 166
67 175
67 244
67 247
67 260
67 277
68 110
68 154
68 176
68 209
68 213
68 229
68 234
68 261
68 263
68 277
68 278
69 103
69 149
69 168
69 178
69 210
69 214
69 230
69 235
69 262
69 264
69 279
69 280
70 96
70 119
70 143
70 150
70 156
70 169
70 250
70 265
70 280
71 97
71 104
71 144
71 157
71 203
71 211
71 219
71 263
71 266
71 281
72 106
72 120
72 151
72 159
72 172
72 204
72 212
72 233
72 248
72 251
72 264
72 282
73 86
73 117
73 181
73 250
73 268
74 93
74 138
74 190
74 240
74 267
75 88
75 118
75 142
75 183
75 215
75 238
75 271
76 83
76 115
76 140
76 180
76 242
76 270
77 90
77 185
77 217
77 274
78 87
78 184
78 216
78 275
79 94
79 114
79 139
79 189
79 245
79 279
80 89
80 111
80 137
80 186
80 218
80 249
80 278
81 84
81 141
81 179
81 247
81 282
82 91
82 112
82 188
82 237
82 281
83 117
83 121
83 129
83 193
83 201
83 253
83 265
83 283
83 291
84 130
84 194
84 202
84 251
84 292
85 118
85 191
85 195
85 252
85 255
85 285
85 293
86 115
86 192
86 196
86 254
86 257
86 284
86 294
87 125
87 193
87 197
87 258
87 295
88 116
88 122
88 126
88 194
88 198
88 256
88 260
88 286
88 296
89 113
89 123
89 127
89 195
89 199
89 257
89 261
89 287
89 297
90 124
90 196
90 200
90 259
90 298
91 114
91 197
91 201
91 260
91 263
91 289
91 299
92 111
92 198
92 202
92 262
92 265
92 288
92 300
93 119
93 191
93 199
93 266
93 301
94 112
94 120
94 128
94 192
94 200
94 252
94 264
94 290
94 302
95 160
95 221
95 268
95 282
95 302
96 162
96 176
96 223
96 269
97 163
97 177
97 219
97 267
97 270
97 283
97 293
97 303
98 164
98 178
98 224
98 268
98 271
98 284
98 292
98 303
99 158
99 222
99 270
99 273
99 285
99 295
99 304
100 159
100 167
100 227
100 271
100 274
100 286
100 294
100 304
101 160
101 168
101 272
102 162
102 225
102 273
102 275
102 297
103 171
103 230
103 274
103 276
103 296
104 165
104 173
104 277
105 166
105 174
105 228
105 275
105 278
105 287
105 299
105 305
106 175
106 233
106 276
106 279
106 288
106 298
106 305
107 155
107 169
107 231
107 278
107 281
107 289
107 301
107 306
108 156
108 170
108 236
108 279
108 282
108 290
108 300
108 306
109 157
109 171
109 232
109 280
110 173
110 234
110 267
110 281
110 291
111 113
111 136
111 181
111 205
111 291
112 114
112 131
112 183
112 207
112 293
113 134
113 180
113 204
113 294
114 135
114 182
114 206
114 296
115 117
115 133
115 187
115 211
115 297
116 118
116 134
116 189
116 213
116 299
117 131
117 186
117 210
117 300
118 132
118 188
118 212
118 302
119 146
119 266
119 291
120 147
120 252
120 307
121 148
121 253
121 293
122 143
122 256
122 294
122 307
123 144
123 216
123 257
124 145
124 259
124 296
125 152
125 258
125 297
126 153
126 217
126 260
127 154
127 261
127 299
127 310
128 149
128 264
128 300
129 150
129 265
129 310
130 151
130 251
130 302
131 268
131 281
131 283
131 290
132 267
132 271
132 285
133 270
133 274
133 284
134 273
134 276
134 286
134 287
135 275
135 279
135 289
136 278
136 282
136 288
137 160
137 174
137 239
137 249
138 167
138 240
139 162
139 170
139 241
139 245
140 163
140 171
140 242
140 246
141 166
141 247
142 159
142 173
142 238
142 248
143 181
143 189
143 235
143 250
143 302
144 182
144 190
144 223
144 240
144 293
145 179
145 183
145 238
145 241
145 292
146 180
146 184
146 239
146 242
146 295
147 181
147 185
147 294
148 182
148 186
148 229
148 244
148 297
149 183
149 187
149 226
149 243
149 296
150 184
150 188
150 299
151 185
151 189
151 245
151 248
151 298
152 186
152 190
152 246
152 249
152 301
153 179
153 187
153 232
153 247
153 300
154 180
154 188
154 220
154 237
154 291
155 174
155 201
155 253
155 281
156 160
156 175
156 193
156 265
156 282
157 161
157 176
157 254
157 266
157 269
157 303
158 162
158 177
158 202
158 270
159 178
159 194
159 251
159 271
159 307
159 311
160 164
160 195
160 252
160 268
160 272
160 311
161 165
161 253
161 256
161 303
161 304
162 166
162 192
162 257
162 269
162 273
162 307
162 312
163 193
163 258
163 270
163 312
164 167
164 197
164 271
164 308
165 168
165 255
165 259
165 272
165 304
166 169
166 194
166 260
166 275
167 171
167 199
167 257
167 274
168 172
168 258
168 262
168 277
168 305
169 173
169 196
169 278
169 309
170 200
170 259
170 279
170 313
171 175
171 201
171 260
171 276
171 280
171 310
171 313
172 176
172 261
172 264
172 305
172 306
173 177
173 198
173 265
173 277
173 281
173 314
174 199
174 266
174 278
174 310
174 314
175 191
175 279
176 251
176 263
176 280
176 306
177 200
177 252
177 267
178 192
178 264
178 268
179 250
179 292
180 240
180 291
181 215
181 238
181 241
181 294
181 311
182 239
182 242
182 293
182 312
183 217
183 296
184 244
184 295
185 243
185 298
186 216
186 297
187 245
187 248
187 300
187 313
188 218
188 246
188 249
188 299
188 314
189 247
189 302
190 237
190 301
191 213
191 239
191 249
192 206
192 284
192 307
193 203
193 237
193 283
194 208
194 243
194 286
194 307
195 205
195 240
195 285
195 308
196 210
196 241
196 245
196 309
197 207
197 242
197 246
197 308
198 212
198 247
198 288
198 309
199 209
199 244
199 287
199 310
200 214
200 250
200 290
201 211
201 289
201 310
202 204
202 238
202 248
203 222
204 236
204 311
205 220
205 225
206 221
206 226
207 223
207 228
207 312
208 224
209 231
210 227
210 232
210 313
211 229
211 234
212 230
212 235
213 219
213 314
214 233
215 271
216 275
217 274
218 278
219 253
219 281
220 266
220 269
221 251
221 271
222 255
222 267
223 253
223 312
224 254
224 274
225 258
225 270
226 259
226 272
227 256
227 276
228 261
228 273
229 258
229 277
230 259
230 279
231 263
231 275
232 264
232 313
233 262
233 282
234 266
234 278
235 251
235 280
236 264
236 268
238 311
239 285
241 284
242 312
245 313
246 289
248 288
249 314
251 282
252 269
252 293
252 302
253 270
254 268
254 272
255 269
255 273
256 271
257 272
257 294
257 297
258 275
259 274
260 277
260 296
260 299
261 278
262 276
262 280
263 277
263 281
264 279
265 280
265 291
265 300
266 267
267 303
268 311
270 304
270 312
271 303
271 311
273 312
274 304
275 305
276 313
278 306
278 314
279 305
279 313
281 314
282 306
283 293
284 292
285 295
286 294
287 299
288 298
289 301
290 300
294 307
295 308
298 309
299 310
