0 159
0 160
0 161
0 162
0 163
0 164
0 165
0 166
0 167
0 168
0 169
0 170
0 171
0 172
0 173
0 174
0 175
0 176
0 177
0 178
0 179
0 180
0 181
0 182
0 183
0 184
0 185
0 186
0 187
0 188
1 127
1 136
1 140
1 151
1 155
1 167
1 183
1 191
1 199
1 202
1 212
1 214
2 128
2 137
2 141
2 152
2 156
2 169
2 185
2 192
2 200
2 201
2 203
2 213
3 129
3 137
3 146
3 153
3 157
3 172
3 188
3 189
3 193
3 202
3 204
3 216
4 130
4 138
4 145
4 154
4 158
4 160
4 174
4 190
4 194
4 203
4 205
4 215
5 131
5 138
5 142
5 147
5 155
5 163
5 177
5 191
5 195
5 204
5 206
5 218
6 132
6 133
6 139
6 148
6 156
6 165
6 179
6 192
6 196
6 205
6 207
6 217
7 121
7 133
7 142
7 149
7 157
7 168
7 182
7 193
7 197
7 206
7 208
7 220
8 122
8 134
8 139
8 150
8 158
8 170
8 184
8 194
8 198
8 207
8 209
8 219
9 123
9 134
9 144
9 147
9 151
9 173
9 187
9 195
9 199
9 208
9 210
9 222
10 124
10 135
10 143
10 148
10 152
10 159
10 175
10 196
10 200
10 209
10 211
10 221
11 125
11 135
11 140
11 149
11 153
11 162
11 178
11 189
11 197
11 210
11 212
11 224
12 126
12 136
12 141
12 150
12 154
12 164
12 180
12 190
12 198
12 201
12 211
12 223
13 103
13 104
13 116
13 117
13 135
13 137
13 202
13 211
14 106
14 107
14 118
14 136
14 138
14 146
14 201
14 204
15 109
15 110
15 119
15 133
15 137
15 145
15 203
15 206
16 95
16 112
16 113
16 120
16 134
16 138
16 205
16 208
17 97
17 98
17 114
17 133
17 135
17 144
17 207
17 210
18 100
18 101
18 115
18 134
18 136
18 143
18 209
18 212
19 90
19 104
19 107
19 168
19 185
19 224
20 90
20 105
20 131
20 171
20 187
20 213
20 227
21 91
21 106
21 109
21 132
21 159
21 172
21 217
21 228
22 92
22 107
22 110
22 127
22 160
22 173
22 214
22 229
23 93
23 108
23 111
23 128
23 161
23 175
23 218
23 230
24 93
24 109
24 112
24 164
24 177
24 219
25 83
25 111
25 130
25 166
25 180
25 220
26 94
26 96
26 123
26 167
26 181
26 217
27 84
27 95
27 98
27 170
27 183
27 218
28 84
28 96
28 99
28 125
28 172
28 186
28 219
28 235
29 85
29 97
29 100
29 126
29 174
29 187
29 223
29 236
30 86
30 98
30 101
30 121
30 175
30 188
30 220
30 237
31 87
31 102
31 122
31 160
31 176
31 224
31 238
32 87
32 100
32 103
32 162
32 179
32 213
33 88
33 91
33 116
33 118
33 144
33 192
33 199
33 225
33 241
34 83
34 92
34 113
34 119
34 143
34 191
34 196
34 231
34 242
35 85
35 94
35 114
35 120
35 146
35 193
35 198
35 234
35 243
36 86
36 89
36 115
36 117
36 145
36 190
36 197
36 240
36 244
37 71
37 87
37 91
37 124
37 150
37 156
37 203
37 211
38 72
38 73
38 88
38 92
38 131
38 151
38 157
38 204
38 212
38 229
38 246
39 73
39 74
39 82
39 89
39 93
39 132
39 152
39 158
39 201
39 205
39 226
39 245
39 247
40 75
40 76
40 81
40 90
40 94
40 127
40 147
40 153
40 202
40 206
40 232
40 248
40 250
41 76
41 77
41 83
41 91
41 128
41 148
41 154
41 203
41 207
41 228
41 249
42 78
42 84
42 92
42 123
42 149
42 155
42 204
42 208
43 63
43 85
43 93
43 130
43 150
43 156
43 205
43 209
44 64
44 65
44 86
44 94
44 125
44 151
44 157
44 206
44 210
44 237
44 252
45 65
45 66
45 80
45 83
45 87
45 126
45 152
45 158
45 207
45 211
45 233
45 251
45 253
46 67
46 68
46 79
46 84
46 88
46 121
46 147
46 153
46 208
46 212
46 239
46 254
46 256
47 68
47 69
47 85
47 89
47 122
47 148
47 154
47 201
47 209
47 236
47 255
48 70
48 86
48 90
48 129
48 149
48 155
48 202
48 210
49 73
49 81
49 102
49 167
49 185
49 192
49 199
49 245
49 258
50 71
50 74
50 109
50 169
50 186
50 200
50 225
50 228
51 72
51 75
51 104
51 111
51 171
51 188
51 193
51 230
51 248
51 259
52 73
52 76
52 160
52 172
52 189
52 194
52 246
52 249
52 260
53 74
53 77
53 105
53 112
53 161
53 174
53 190
53 227
53 247
53 261
54 75
54 78
54 107
54 163
54 176
54 195
54 229
55 76
55 82
55 96
55 108
55 165
55 177
55 191
55 196
55 250
55 262
56 65
56 79
56 99
56 111
56 170
56 182
56 193
56 198
56 251
56 265
57 63
57 66
57 100
57 171
57 184
57 194
57 236
58 64
58 67
58 95
58 102
58 173
58 186
58 199
58 238
58 254
58 266
59 65
59 68
59 175
59 187
59 195
59 200
59 252
59 255
59 267
60 66
60 69
60 96
60 103
60 159
60 176
60 196
60 235
60 253
60 268
61 67
61 70
61 98
61 161
61 178
61 189
61 237
61 240
62 68
62 80
62 105
62 162
62 180
62 190
62 197
62 256
62 269
63 69
63 74
63 100
63 130
63 150
63 166
63 184
63 215
63 223
63 227
63 245
63 270
63 275
64 70
64 75
64 102
64 110
64 125
64 157
64 168
64 186
64 216
64 224
64 229
64 240
64 257
64 259
64 276
65 76
65 111
65 126
65 151
65 158
65 170
65 187
65 248
65 258
65 260
65 271
65 277
66 71
66 77
66 103
66 152
66 159
66 171
66 213
66 217
66 226
66 231
66 249
66 261
66 277
66 278
67 72
67 78
67 95
67 147
67 161
67 173
67 214
67 218
67 232
67 246
67 259
67 279
67 280
68 73
68 105
68 121
68 148
68 153
68 162
68 175
68 247
68 260
68 262
68 272
68 280
69 74
69 96
69 106
69 122
69 154
69 164
69 176
69 215
69 219
69 228
69 261
69 263
69 281
70 75
70 98
70 108
70 129
70 149
70 166
70 178
70 216
70 220
70 230
70 250
70 264
70 282
70 283
71 77
71 99
71 109
71 124
71 156
71 169
71 181
71 217
71 221
71 235
71 251
71 263
71 284
71 285
72 78
72 101
72 111
72 131
72 151
72 171
72 183
72 218
72 222
72 237
72 264
72 266
72 286
73 102
73 132
73 152
73 157
73 172
73 185
73 254
73 265
73 267
73 273
73 287
74 112
74 158
74 174
74 186
74 219
74 223
74 233
74 255
74 268
74 287
74 288
75 104
75 153
75 176
75 188
75 220
75 224
75 234
75 239
75 252
75 266
75 289
75 290
76 96
76 127
76 147
76 154
76 160
76 177
76 253
76 267
76 269
76 274
76 290
77 97
77 105
77 128
77 148
77 161
77 179
77 213
77 221
77 225
77 236
77 268
77 270
77 291
78 107
78 123
78 155
78 163
78 181
78 214
78 222
78 238
78 256
78 257
78 292
79 88
79 120
79 142
79 193
79 241
79 272
79 279
80 83
80 117
80 141
80 190
80 242
80 271
80 278
81 94
81 116
81 140
81 199
81 243
81 274
81 289
82 89
82 113
82 139
82 196
82 244
82 273
82 288
83 119
83 130
83 203
83 211
83 269
84 125
84 204
84 212
84 257
84 260
85 120
85 126
85 201
85 205
85 258
85 261
85 272
85 293
86 117
86 121
86 202
86 206
86 259
86 262
86 271
86 294
87 122
87 203
87 207
87 260
87 263
88 118
88 129
88 204
88 208
88 265
89 115
89 124
89 205
89 209
89 262
90 131
90 206
90 210
90 264
90 267
91 116
91 132
91 207
91 211
91 265
91 268
91 274
91 295
92 113
92 127
92 208
92 212
92 266
92 269
92 273
92 296
93 128
93 201
93 209
93 267
93 270
94 114
94 123
94 202
94 210
94 258
95 165
95 183
95 276
95 292
96 167
96 186
96 228
96 277
97 144
97 169
97 187
97 225
97 275
97 278
97 293
97 297
98 170
98 188
98 230
98 276
98 279
98 297
99 161
99 172
99 277
100 162
100 174
100 227
100 278
100 281
100 298
101 143
101 163
101 175
101 279
101 282
101 294
101 298
102 165
102 176
102 229
102 280
102 283
103 167
103 179
103 231
103 281
103 285
104 168
104 180
104 234
104 282
104 286
105 171
105 182
105 236
105 284
105 287
106 146
106 172
106 184
106 285
106 288
106 295
106 299
107 173
107 185
107 238
107 286
107 289
107 299
108 175
108 186
108 290
109 159
109 177
109 235
109 288
109 291
109 300
110 145
110 160
110 178
110 240
110 289
110 292
110 296
110 300
111 161
111 180
111 237
111 290
112 164
112 182
112 275
112 291
113 115
113 138
113 191
113 215
113 244
114 116
114 133
114 193
114 217
114 241
114 293
115 136
115 190
115 214
115 242
115 294
116 137
116 192
116 216
116 243
117 119
117 135
117 197
117 221
117 242
118 120
118 136
118 199
118 223
118 243
118 295
119 133
119 196
119 220
119 244
119 296
120 134
120 198
120 222
120 241
121 157
121 259
122 158
122 260
123 151
123 258
123 301
124 148
124 262
124 302
125 153
125 260
126 154
126 261
127 151
127 266
128 152
128 267
129 157
129 265
129 303
130 154
130 269
130 304
131 147
131 267
132 148
132 268
133 276
133 291
134 144
134 275
134 279
135 143
135 278
135 282
136 281
136 286
137 146
137 285
137 289
138 145
138 288
138 292
139 165
139 184
139 245
140 167
140 178
140 250
141 169
141 180
141 251
142 163
142 182
142 256
143 212
143 278
144 207
144 279
145 206
145 288
146 201
146 289
147 191
147 199
147 239
147 246
148 192
148 200
148 228
148 247
148 293
149 189
149 193
149 250
150 190
150 194
150 245
151 191
151 195
151 229
151 248
151 294
152 192
152 196
152 233
152 249
153 193
153 197
153 232
153 252
154 194
154 198
154 236
154 253
154 295
155 195
155 199
155 256
156 196
156 200
156 251
157 189
157 197
157 237
157 254
157 296
158 190
158 198
158 226
158 255
159 164
159 184
159 211
159 291
159 318
160 165
160 185
160 203
160 269
160 292
160 305
161 166
161 186
161 259
161 270
161 277
161 297
161 306
162 167
162 187
162 212
162 260
162 278
162 306
162 307
163 168
163 188
163 204
163 257
163 279
163 301
164 169
164 201
164 261
164 275
164 307
165 170
165 205
165 258
165 276
165 280
165 302
165 308
166 171
166 297
166 298
166 308
167 172
167 202
167 262
167 277
167 281
167 301
168 173
168 206
168 259
168 282
168 309
169 174
169 203
169 263
169 278
169 302
170 175
170 207
170 260
170 279
170 283
170 309
170 310
171 176
171 261
171 264
171 280
171 284
171 298
171 310
172 177
172 204
172 265
172 285
172 311
173 178
173 208
173 286
173 312
174 179
174 205
174 281
174 311
175 180
175 209
175 262
175 282
175 312
176 181
176 263
176 266
176 283
176 287
176 299
176 313
177 182
177 206
177 267
177 284
177 288
177 313
177 314
178 183
178 210
178 264
178 289
178 303
179 184
179 207
179 268
179 285
179 314
180 185
180 211
180 265
180 286
180 290
180 304
181 186
181 299
181 300
181 315
182 187
182 208
182 269
182 287
182 291
182 303
182 315
183 188
183 212
183 266
183 292
183 316
184 209
184 270
184 288
184 304
185 201
185 267
185 289
185 316
185 317
186 257
186 268
186 290
186 300
186 317
187 210
187 258
187 275
187 318
188 202
188 276
188 305
189 246
189 305
189 306
190 247
190 271
190 307
191 250
191 294
192 245
192 293
192 308
193 248
193 272
193 309
194 249
194 310
194 311
195 252
195 312
195 313
196 253
196 273
196 314
197 256
197 296
197 315
198 251
198 295
199 254
199 274
199 316
200 255
200 317
200 318
201 223
201 245
202 216
202 248
202 301
203 213
203 249
203 302
204 218
204 246
204 301
205 215
205 247
205 302
206 220
206 250
207 217
207 251
208 222
208 254
208 303
209 219
209 255
209 304
210 224
210 252
210 303
211 221
211 253
211 304
212 214
212 256
213 227
213 306
213 318
214 229
214 240
215 226
215 231
215 307
216 232
216 308
216 309
217 228
218 230
218 310
218 312
219 235
219 311
219 313
220 237
221 233
221 314
221 315
222 234
222 239
222 316
223 225
223 236
224 238
224 305
224 317
225 291
226 270
226 277
226 307
227 261
227 275
227 306
230 259
230 282
230 310
231 263
231 278
232 264
232 280
232 309
233 263
233 287
233 314
234 264
234 289
235 268
235 285
235 313
238 266
238 292
238 317
239 257
239 290
239 316
240 276
241 293
242 294
243 295
244 296
245 308
246 306
247 307
248 309
249 310
252 313
253 314
254 316
255 317
256 315
257 292
258 277
258 293
259 276
259 280
261 277
261 281
262 280
262 284
262 294
263 285
264 282
265 283
265 287
265 295
266 286
266 290
268 287
268 291
269 290
269 296
270 275
271 294
272 293
273 296
274 295
275 297
275 307
275 318
276 305
277 306
278 298
278 307
279 297
279 309
280 308
280 310
281 311
282 298
282 309
282 312
283 310
284 313
285 299
285 311
285 314
286 312
287 313
287 315
288 300
288 314
289 299
289 316
290 317
291 318
292 300
292 305
292 316
293 302
294 301
295 304
296 303
