0 163
0 164
0 165
0 166
0 167
0 168
0 169
0 170
0 171
0 172
0 173
0 174
0 175
0 176
0 177
0 178
0 179
0 180
0 181
0 182
0 183
0 184
0 185
0 186
0 187
0 188
1 132
1 142
1 147
1 149
1 155
1 159
1 170
1 191
1 199
1 202
1 212
1 214
1 225
2 131
2 143
2 148
2 156
2 160
2 172
2 185
2 192
2 200
2 201
2 203
2 213
2 226
3 133
3 135
3 143
3 149
3 157
3 161
3 175
3 188
3 189
3 193
3 202
3 204
3 216
4 134
4 136
4 144
4 158
4 162
4 164
4 190
4 194
4 203
4 205
4 215
5 138
5 144
5 150
5 151
5 159
5 167
5 178
5 191
5 195
5 204
5 206
5 218
5 227
6 137
6 139
6 145
6 152
6 160
6 168
6 180
6 192
6 196
6 205
6 207
6 217
6 228
7 124
7 139
7 150
7 153
7 161
7 171
7 183
7 193
7 197
7 206
7 208
7 220
7 229
8 123
8 140
8 145
8 154
8 162
8 173
8 184
8 194
8 198
8 207
8 209
8 219
8 230
9 125
9 127
9 140
9 151
9 155
9 187
9 195
9 199
9 208
9 210
9 222
10 126
10 128
10 141
10 146
10 152
10 156
10 163
10 176
10 196
10 200
10 209
10 211
10 221
11 130
11 141
11 147
11 153
11 157
11 166
11 179
11 189
11 197
11 210
11 212
11 224
11 231
12 129
12 142
12 146
12 148
12 154
12 158
12 181
12 190
12 198
12 201
12 211
12 223
12 232
13 106
13 107
13 118
13 119
13 141
13 143
13 202
13 211
13 226
13 231
14 109
14 110
14 120
14 142
14 144
14 201
14 204
14 225
15 111
15 112
15 121
15 139
15 143
15 203
15 206
15 228
16 99
16 114
16 115
16 122
16 140
16 144
16 205
16 208
16 227
16 230
17 101
17 102
17 116
17 139
17 141
17 207
17 210
17 229
18 103
18 104
18 117
18 140
18 142
18 209
18 212
18 232
19 93
19 106
19 109
19 134
19 170
19 184
19 215
19 234
20 98
20 99
20 112
20 135
20 168
20 179
20 216
20 240
21 87
21 113
21 136
21 169
21 181
21 220
21 241
22 98
22 100
22 125
22 170
22 182
22 217
22 242
23 87
23 101
23 114
23 126
23 172
23 183
23 221
23 243
24 92
24 104
24 107
24 127
24 167
24 181
24 222
24 249
25 92
25 95
25 118
25 120
25 192
25 199
25 233
25 235
26 87
26 96
26 115
26 121
26 191
26 196
26 239
26 241
27 89
27 98
27 116
27 122
27 193
27 198
27 242
27 244
28 90
28 93
28 117
28 119
28 190
28 197
28 248
28 250
29 66
29 67
29 82
29 91
29 95
29 128
29 134
29 154
29 160
29 203
29 211
29 251
30 68
30 69
30 81
30 92
30 96
30 130
30 155
30 161
30 204
30 212
30 252
31 69
31 70
31 84
31 93
31 97
31 137
31 156
31 162
31 201
31 205
31 234
31 253
31 254
32 71
32 72
32 83
32 94
32 98
32 132
32 151
32 157
32 202
32 206
32 240
32 255
32 256
33 72
33 73
33 86
33 87
33 95
33 123
33 152
33 158
33 203
33 207
33 237
33 257
34 57
34 74
34 85
34 88
34 96
34 125
34 135
34 153
34 159
34 204
34 208
34 258
35 57
35 58
35 76
35 89
35 97
35 126
35 136
35 154
35 160
35 205
35 209
35 259
36 59
36 60
36 75
36 90
36 98
36 138
36 155
36 161
36 206
36 210
36 246
36 260
37 60
37 61
37 78
37 87
37 91
37 129
37 156
37 162
37 207
37 211
37 243
37 261
37 262
38 62
38 63
38 77
38 88
38 92
38 124
38 151
38 157
38 208
38 212
38 249
38 263
38 264
39 63
39 64
39 80
39 89
39 93
39 131
39 152
39 158
39 201
39 209
39 265
40 65
40 66
40 79
40 90
40 94
40 127
40 133
40 153
40 159
40 202
40 210
40 266
41 65
41 68
41 104
41 169
41 191
41 235
41 249
41 252
41 267
42 66
42 69
42 80
42 83
42 105
42 170
42 185
42 192
42 199
42 253
42 268
43 67
43 70
43 111
43 172
43 186
43 200
43 233
43 237
43 251
43 269
44 68
44 71
44 107
44 113
44 174
44 188
44 193
44 238
44 255
44 270
45 70
45 73
45 108
45 114
45 165
45 190
45 236
45 254
45 271
46 71
46 74
46 110
46 167
46 177
46 195
46 241
46 258
46 272
47 57
47 72
47 75
47 84
47 100
47 168
47 178
47 191
47 196
47 256
47 273
48 58
48 73
48 101
48 169
48 180
48 192
48 239
48 243
48 257
48 274
49 59
49 74
49 112
49 171
49 182
49 197
49 240
49 244
49 260
49 275
50 57
50 60
50 77
50 86
50 113
50 173
50 183
50 193
50 198
50 261
50 276
51 58
51 61
51 103
51 174
51 184
51 194
51 242
51 259
51 277
52 59
52 62
52 99
52 105
52 186
52 199
52 247
52 263
52 278
53 61
53 64
53 100
53 106
53 163
53 177
53 196
53 245
53 262
53 279
54 62
54 65
54 102
54 165
54 179
54 189
54 246
54 250
54 266
54 280
55 63
55 66
55 78
55 81
55 108
55 166
55 181
55 190
55 197
55 264
55 281
56 64
56 67
56 109
56 182
56 198
56 234
56 248
56 265
56 282
57 63
57 69
57 126
57 135
57 153
57 160
57 168
57 183
57 252
57 265
57 268
57 281
58 64
58 70
58 103
58 136
58 154
58 169
58 184
58 215
58 223
58 236
58 253
58 269
58 282
58 283
59 65
59 71
59 105
59 112
59 161
59 171
59 186
59 216
59 224
59 250
59 267
59 270
59 284
60 66
60 72
60 113
60 129
60 138
60 155
60 162
60 173
60 187
60 251
60 255
60 268
60 285
61 67
61 73
61 106
61 156
61 163
61 174
61 213
61 217
61 234
61 239
61 269
61 271
61 285
61 286
62 68
62 74
62 99
62 151
62 165
62 214
62 218
62 235
62 240
62 270
62 272
62 287
62 288
63 69
63 108
63 124
63 131
63 152
63 157
63 166
63 176
63 254
63 258
63 273
63 288
64 70
64 100
64 109
64 158
64 177
64 215
64 219
64 237
64 242
64 271
64 274
64 289
65 71
65 102
65 133
65 153
65 169
65 179
65 216
65 220
65 238
65 256
65 272
65 275
65 290
66 72
66 127
66 134
66 154
66 159
66 170
66 181
66 257
66 260
66 273
66 276
67 73
67 111
67 128
67 160
67 172
67 182
67 217
67 221
67 245
67 261
67 274
67 277
67 291
68 74
68 104
68 113
68 155
68 174
68 218
68 222
68 241
68 246
68 275
68 278
68 292
69 105
69 130
69 137
69 156
69 161
69 175
69 185
69 259
69 263
69 276
69 293
70 114
70 162
70 186
70 219
70 223
70 243
70 248
70 277
70 279
70 293
70 294
71 107
71 157
71 177
71 188
71 220
71 224
71 244
71 249
71 278
71 280
71 295
71 296
72 100
72 123
72 132
72 151
72 158
72 164
72 178
72 262
72 266
72 281
72 296
73 101
73 108
73 152
73 165
73 180
73 213
73 221
73 233
73 279
73 282
73 297
74 110
74 125
74 159
74 167
74 182
74 214
74 222
74 247
74 264
74 267
74 280
74 298
75 90
75 121
75 191
75 266
75 284
76 97
76 146
76 200
76 232
76 254
76 283
77 92
77 122
77 150
77 193
77 227
77 252
77 287
78 87
78 119
78 148
78 190
78 226
78 257
78 286
79 94
79 195
79 229
79 255
79 290
80 89
80 120
80 192
80 259
80 289
81 96
81 117
81 197
81 258
81 292
82 91
82 194
82 228
82 262
82 291
83 98
83 118
83 147
83 199
83 231
83 260
83 295
84 93
84 115
84 145
84 196
84 230
84 265
84 294
85 88
85 149
85 189
85 225
85 263
85 298
86 95
86 116
86 198
86 251
86 297
87 121
87 126
87 136
87 203
87 211
87 269
87 281
87 299
87 307
88 138
88 204
88 212
88 267
88 308
89 122
89 129
89 201
89 205
89 268
89 271
89 301
89 309
90 119
90 124
90 202
90 206
90 270
90 273
90 300
90 310
91 131
91 203
91 207
91 274
91 311
92 120
92 127
92 133
92 204
92 208
92 272
92 276
92 302
92 312
93 117
93 128
93 134
93 205
93 209
93 273
93 277
93 303
93 313
94 130
94 206
94 210
94 275
94 314
95 118
95 137
95 207
95 211
95 276
95 279
95 305
95 315
96 115
96 132
96 208
96 212
96 278
96 281
96 304
96 316
97 123
97 201
97 209
97 282
97 317
98 116
98 125
98 135
98 202
98 210
98 268
98 280
98 306
98 318
99 168
99 235
99 284
99 298
99 318
100 170
100 186
100 237
100 285
101 172
101 187
101 233
101 283
101 286
101 299
101 309
101 319
102 173
102 188
102 238
102 284
102 287
102 300
102 308
102 319
103 166
103 236
103 286
103 289
103 301
103 311
103 320
104 167
104 176
104 241
104 287
104 290
104 302
104 310
104 320
105 168
105 177
105 288
106 170
106 180
106 239
106 289
106 291
106 313
107 171
107 181
107 244
107 290
107 292
107 312
108 174
108 183
108 293
109 175
109 184
109 242
109 291
109 294
109 303
109 315
109 321
110 185
110 247
110 292
110 295
110 304
110 314
110 321
111 163
111 178
111 245
111 294
111 297
111 305
111 317
111 322
112 164
112 179
112 250
112 295
112 298
112 306
112 316
112 322
113 165
113 181
113 246
113 296
114 183
114 248
114 283
114 297
114 307
115 117
115 144
115 191
115 215
115 307
116 118
116 139
116 193
116 217
116 309
117 142
117 190
117 214
117 310
118 143
118 192
118 216
118 312
119 121
119 141
119 197
119 221
119 313
120 122
120 142
120 199
120 223
120 315
121 139
121 196
121 220
121 316
122 140
122 198
122 222
122 318
123 154
123 282
123 307
124 161
124 270
124 308
125 155
125 225
125 268
125 323
126 156
126 269
126 309
126 324
127 151
127 272
127 310
127 323
128 152
128 228
128 273
128 324
129 158
129 271
129 311
129 325
130 153
130 275
130 312
131 160
131 274
131 313
132 155
132 278
132 314
132 326
133 161
133 229
133 276
133 327
134 162
134 277
134 315
134 328
135 157
135 280
135 316
135 327
136 158
136 232
136 281
136 328
137 152
137 279
137 317
138 159
138 267
138 318
139 284
139 297
139 299
139 306
140 283
140 287
140 301
141 286
141 290
141 300
142 289
142 292
142 302
142 303
143 291
143 295
143 305
144 294
144 298
144 304
145 168
145 184
145 253
145 265
146 176
146 254
147 170
147 179
147 256
147 260
148 172
148 181
148 257
148 261
149 175
149 263
150 167
150 183
150 252
150 264
151 191
151 199
151 249
151 266
151 318
152 192
152 200
152 237
152 254
152 309
153 189
153 193
153 252
153 256
153 308
154 190
154 194
154 253
154 257
154 311
155 191
155 195
155 255
155 310
156 192
156 196
156 243
156 259
156 313
157 193
157 197
157 240
157 258
157 312
158 194
158 198
158 262
158 315
159 195
159 199
159 260
159 264
159 314
160 196
160 200
160 261
160 265
160 317
161 189
161 197
161 246
161 263
161 316
162 190
162 198
162 234
162 251
162 307
163 184
163 211
163 269
163 297
164 168
164 185
164 203
164 281
164 298
165 169
165 186
165 270
165 282
165 285
165 319
166 170
166 187
166 212
166 286
167 171
167 188
167 204
167 267
167 287
167 323
167 329
168 173
168 205
168 268
168 284
168 288
168 324
168 329
168 330
169 174
169 269
169 272
169 319
169 320
169 330
170 175
170 202
170 273
170 285
170 289
170 323
170 331
171 206
171 270
171 290
172 203
172 274
172 286
172 324
172 331
173 176
173 207
173 287
173 325
174 177
174 271
174 275
174 288
174 320
175 178
175 204
175 276
175 291
176 181
176 209
176 273
176 290
177 182
177 274
177 278
177 293
177 321
178 183
178 206
178 294
178 326
179 210
179 275
179 295
179 327
179 332
180 184
180 207
180 279
180 291
181 185
181 211
181 276
181 292
181 296
181 328
181 332
182 186
182 277
182 280
182 321
182 322
182 333
183 187
183 208
183 281
183 293
183 297
183 327
183 333
183 334
184 209
184 282
184 294
184 328
184 334
185 201
185 295
186 267
186 279
186 296
186 322
187 210
187 268
187 283
188 202
188 280
188 284
189 266
189 308
190 232
190 254
190 307
191 227
191 252
191 256
191 310
191 329
192 226
192 253
192 257
192 309
192 330
192 331
193 229
193 255
193 312
194 259
194 311
195 258
195 314
196 228
196 262
196 313
197 231
197 260
197 264
197 316
197 332
197 333
198 230
198 261
198 265
198 315
198 334
199 225
199 263
199 318
200 251
200 317
201 223
201 253
201 265
202 216
202 255
202 300
202 323
203 213
203 251
203 299
203 324
204 218
204 258
204 302
204 323
205 215
205 254
205 301
205 324
205 325
206 220
206 256
206 260
206 326
207 217
207 257
207 261
207 325
208 222
208 263
208 304
208 326
208 327
209 219
209 259
209 303
209 328
210 224
210 266
210 306
210 327
211 221
211 262
211 305
211 328
212 214
212 252
212 264
213 236
214 250
214 329
215 234
215 239
216 235
216 240
216 330
217 237
217 242
217 331
218 238
219 245
220 241
220 246
220 332
221 243
221 248
221 333
222 244
222 249
223 233
223 334
224 247
225 298
226 286
227 287
228 291
229 290
230 294
231 295
232 283
233 269
233 297
234 282
234 285
235 267
235 287
235 330
236 271
236 283
237 269
237 331
238 270
238 290
239 274
239 286
240 275
240 288
241 272
241 292
242 277
242 289
243 274
243 293
244 275
244 295
245 279
245 291
246 280
246 332
247 278
247 298
248 282
248 294
248 333
249 267
249 296
250 280
250 284
252 329
253 301
253 330
256 300
257 331
260 332
261 305
264 304
264 333
265 334
267 298
268 285
268 309
268 318
269 286
270 284
270 288
271 285
271 289
272 287
273 288
273 310
273 313
274 291
275 290
276 293
276 312
276 315
277 294
278 292
278 296
279 293
279 297
280 295
281 296
281 307
281 316
282 283
283 319
284 329
286 320
286 331
287 319
287 329
288 330
289 331
290 320
291 321
292 332
293 333
294 322
294 334
295 321
295 332
297 334
298 322
299 309
300 308
301 311
302 310
303 315
304 314
305 317
306 316
309 324
310 323
311 325
314 326
315 328
316 327
