0 171
0 172
0 173
0 174
0 175
0 176
0 177
0 178
0 179
0 180
0 181
0 182
0 183
0 184
0 185
0 186
0 187
0 188
0 189
0 190
0 191
0 192
0 193
0 194
0 195
0 196
0 197
0 198
0 199
0 200
1 135
1 144
1 148
1 156
1 163
1 167
1 179
1 195
1 203
1 211
1 214
1 224
1 226
2 136
2 145
2 149
2 164
2 168
2 181
2 197
2 204
2 212
2 213
2 215
2 225
3 137
3 145
3 158
3 165
3 169
3 184
3 200
3 201
3 205
3 214
3 216
3 228
4 138
4 146
4 155
4 166
4 170
4 172
4 186
4 202
4 206
4 215
4 217
4 227
5 139
5 146
5 150
5 159
5 167
5 175
5 189
5 203
5 207
5 216
5 218
5 230
6 140
6 141
6 147
6 157
6 160
6 168
6 177
6 191
6 204
6 208
6 217
6 219
6 229
7 129
7 141
7 150
7 152
7 161
7 169
7 180
7 194
7 205
7 209
7 218
7 220
7 232
8 130
8 142
8 147
8 162
8 170
8 182
8 196
8 206
8 210
8 219
8 221
8 231
9 131
9 142
9 154
9 159
9 163
9 185
9 199
9 207
9 211
9 220
9 222
9 234
10 132
10 143
10 151
10 160
10 164
10 171
10 187
10 208
10 212
10 221
10 223
10 233
11 133
11 143
11 148
11 161
11 165
11 174
11 190
11 201
11 209
11 222
11 224
11 236
12 134
12 144
12 149
12 153
12 162
12 166
12 176
12 192
12 202
12 210
12 213
12 223
12 235
13 110
13 111
13 124
13 125
13 143
13 145
13 153
13 156
13 214
13 223
14 113
14 114
14 126
14 144
14 146
14 158
14 213
14 216
15 117
15 118
15 127
15 141
15 145
15 155
15 215
15 218
16 101
16 120
16 121
16 128
16 142
16 146
16 152
16 157
16 217
16 220
17 103
17 104
17 122
17 141
17 143
17 154
17 219
17 222
18 107
18 108
18 123
18 142
18 144
18 151
18 221
18 224
19 94
19 112
19 137
19 178
19 194
19 235
19 237
20 96
20 111
20 114
20 180
20 197
20 236
21 96
21 112
21 116
21 139
21 183
21 199
21 225
21 240
22 97
22 113
22 117
22 140
22 171
22 184
22 229
22 241
23 98
23 114
23 118
23 135
23 172
23 185
23 226
23 242
24 99
24 115
24 119
24 136
24 173
24 187
24 230
24 243
25 99
25 117
25 120
25 176
25 189
25 231
26 89
26 119
26 138
26 178
26 192
26 232
26 246
27 100
27 102
27 131
27 179
27 193
27 229
27 247
28 90
28 101
28 104
28 182
28 195
28 230
29 90
29 102
29 106
29 133
29 184
29 198
29 231
29 250
30 91
30 103
30 107
30 134
30 186
30 199
30 235
30 251
31 92
31 104
31 108
31 129
31 187
31 200
31 232
31 252
32 93
32 105
32 109
32 130
32 172
32 188
32 236
32 253
33 93
33 107
33 110
33 174
33 191
33 225
34 95
34 109
34 132
34 177
34 193
34 226
34 256
35 94
35 97
35 124
35 126
35 154
35 157
35 204
35 211
35 237
35 239
35 257
36 89
36 98
36 121
36 127
36 151
36 156
36 203
36 208
36 244
36 246
36 258
37 91
37 100
37 122
37 128
37 153
37 158
37 205
37 210
37 247
37 249
37 259
38 92
38 95
38 123
38 125
38 152
38 155
38 202
38 209
38 254
38 256
38 260
39 73
39 93
39 97
39 132
39 162
39 168
39 215
39 223
40 74
40 75
40 86
40 94
40 98
40 139
40 163
40 169
40 216
40 224
40 242
40 262
41 75
41 76
41 88
41 95
41 99
41 140
41 164
41 170
41 213
41 217
41 238
41 261
41 263
42 77
42 78
42 85
42 96
42 100
42 135
42 159
42 165
42 214
42 218
42 245
42 264
42 266
43 78
43 79
43 87
43 89
43 97
43 136
43 160
43 166
43 215
43 219
43 241
43 265
44 80
44 90
44 98
44 131
44 161
44 167
44 216
44 220
45 65
45 91
45 99
45 138
45 162
45 168
45 217
45 221
46 66
46 67
46 82
46 92
46 100
46 133
46 163
46 169
46 218
46 222
46 252
46 268
47 67
47 68
47 84
47 89
47 93
47 134
47 164
47 170
47 219
47 223
47 248
47 267
47 269
48 69
48 70
48 81
48 90
48 94
48 129
48 159
48 165
48 220
48 224
48 255
48 270
48 272
49 70
49 71
49 83
49 91
49 95
49 130
49 160
49 166
49 213
49 221
49 251
49 271
50 72
50 92
50 96
50 137
50 161
50 167
50 214
50 222
51 75
51 85
51 109
51 116
51 179
51 197
51 204
51 211
51 261
51 274
52 73
52 76
52 87
52 117
52 181
52 198
52 212
52 237
52 241
53 74
53 77
53 111
53 119
53 183
53 200
53 205
53 243
53 264
53 275
54 75
54 78
54 172
54 184
54 201
54 206
54 262
54 265
54 276
55 76
55 79
55 112
55 120
55 173
55 186
55 202
55 240
55 263
55 277
56 77
56 80
56 86
56 114
56 175
56 188
56 207
56 242
56 246
57 78
57 88
57 102
57 115
57 177
57 189
57 203
57 208
57 266
57 278
58 67
58 81
58 106
58 119
58 182
58 194
58 205
58 210
58 267
58 281
59 65
59 68
59 83
59 107
59 183
59 196
59 206
59 247
59 251
60 66
60 69
60 101
60 109
60 185
60 198
60 211
60 253
60 270
60 282
61 67
61 70
61 187
61 199
61 207
61 212
61 268
61 271
61 283
62 68
62 71
62 102
62 110
62 171
62 188
62 208
62 250
62 269
62 284
63 69
63 72
63 82
63 104
63 173
63 190
63 201
63 252
63 256
64 70
64 84
64 105
64 112
64 174
64 192
64 202
64 209
64 272
64 285
65 71
65 76
65 107
65 116
65 138
65 162
65 178
65 196
65 227
65 235
65 240
65 261
65 286
65 291
65 292
66 72
66 77
66 109
66 118
66 133
66 169
66 180
66 198
66 228
66 236
66 242
66 256
66 273
66 275
66 293
67 78
67 119
67 134
67 163
67 170
67 182
67 199
67 264
67 274
67 276
67 287
67 294
68 73
68 79
68 110
68 164
68 171
68 183
68 225
68 229
68 238
68 244
68 265
68 277
68 294
68 295
69 74
69 80
69 101
69 159
69 173
69 185
69 226
69 230
69 239
69 245
69 262
69 275
69 296
69 297
70 75
70 112
70 129
70 160
70 165
70 174
70 187
70 263
70 276
70 278
70 288
70 297
71 76
71 102
71 113
71 130
71 166
71 176
71 188
71 227
71 231
71 241
71 247
71 277
71 279
71 298
72 77
72 104
72 115
72 137
72 161
72 178
72 190
72 228
72 232
72 243
72 266
72 280
72 299
72 300
73 79
73 106
73 117
73 132
73 168
73 181
73 193
73 229
73 233
73 250
73 267
73 279
73 301
73 302
74 80
74 108
74 119
74 139
74 163
74 183
74 195
74 230
74 234
74 246
74 252
74 280
74 282
74 303
75 109
75 140
75 164
75 169
75 184
75 197
75 270
75 281
75 283
75 289
75 304
76 120
76 170
76 186
76 198
76 231
76 235
76 248
76 254
76 271
76 284
76 304
76 305
77 111
77 165
77 188
77 200
77 232
77 236
77 249
77 255
77 268
77 282
77 306
77 307
78 102
78 135
78 159
78 166
78 172
78 189
78 269
78 283
78 285
78 290
78 307
79 103
79 112
79 136
79 160
79 173
79 191
79 225
79 233
79 237
79 251
79 284
79 286
79 308
80 105
80 114
80 131
80 167
80 175
80 193
80 226
80 234
80 253
80 272
80 273
80 309
80 310
81 94
81 128
81 150
81 205
81 257
81 288
81 296
82 100
82 148
82 201
82 266
82 294
83 95
83 147
83 206
83 261
83 297
84 89
84 125
84 149
84 202
84 258
84 287
84 295
85 100
85 124
85 148
85 211
85 259
85 290
85 306
86 94
86 150
86 207
86 272
86 304
87 89
87 149
87 212
87 267
87 307
88 95
88 121
88 147
88 208
88 260
88 289
88 305
89 127
89 138
89 215
89 223
89 285
90 133
90 216
90 224
90 273
90 276
90 311
91 128
91 134
91 213
91 217
91 274
91 277
91 288
91 312
92 125
92 129
92 214
92 218
92 275
92 278
92 287
92 313
93 130
93 215
93 219
93 276
93 279
93 314
94 126
94 137
94 216
94 220
94 281
95 123
95 132
95 217
95 221
95 278
96 139
96 218
96 222
96 280
96 283
96 315
97 124
97 140
97 219
97 223
97 281
97 284
97 290
97 316
98 121
98 135
98 220
98 224
98 282
98 285
98 289
98 317
99 136
99 213
99 221
99 283
99 286
99 318
100 122
100 131
100 214
100 222
100 274
101 157
101 177
101 195
101 239
101 293
101 309
102 179
102 198
102 241
102 291
102 294
102 311
103 154
103 181
103 199
103 237
103 292
103 295
103 312
103 319
104 182
104 200
104 243
104 293
104 296
104 319
105 172
105 183
105 297
106 173
106 184
106 294
107 174
107 186
107 240
107 295
107 298
107 320
108 151
108 175
108 187
108 246
108 296
108 299
108 313
108 320
109 177
109 188
109 242
109 297
109 300
109 314
110 156
110 179
110 191
110 244
110 298
110 302
111 153
111 180
111 192
111 249
111 299
111 303
112 183
112 194
112 251
112 301
112 304
112 315
113 158
113 184
113 196
113 247
113 302
113 305
113 316
113 321
114 185
114 197
114 253
114 303
114 306
114 321
115 187
115 198
115 307
116 188
116 199
116 304
117 171
117 189
117 250
117 305
117 308
117 322
118 155
118 172
118 190
118 256
118 306
118 309
118 317
118 322
119 173
119 192
119 252
119 307
119 310
119 318
120 152
120 176
120 194
120 254
120 292
120 308
121 123
121 146
121 203
121 227
121 260
122 124
122 141
122 205
122 229
122 257
122 312
123 144
123 202
123 226
123 258
123 313
124 145
124 204
124 228
124 259
125 127
125 143
125 209
125 233
125 258
126 128
126 144
126 211
126 235
126 259
126 316
127 141
127 208
127 232
127 260
127 317
128 142
128 210
128 234
128 257
129 169
129 275
130 170
130 276
131 163
131 274
131 311
131 323
132 160
132 278
132 314
132 324
133 165
133 276
134 166
134 277
135 163
135 282
136 164
136 283
137 169
137 281
137 315
137 325
138 166
138 285
138 318
138 326
139 159
139 283
140 160
140 284
141 152
141 157
141 293
141 308
142 154
142 292
142 296
143 151
143 295
143 299
144 153
144 156
144 298
144 303
145 158
145 302
145 306
146 155
146 305
146 309
147 177
147 196
147 261
148 179
148 190
148 266
149 181
149 192
149 267
150 175
150 194
150 272
151 224
151 295
152 217
152 293
153 214
153 298
154 219
154 296
155 218
155 305
156 223
156 303
157 220
157 308
158 213
158 306
159 203
159 211
159 255
159 262
159 311
160 204
160 212
160 241
160 263
160 312
161 201
161 205
161 266
162 202
162 206
162 261
163 203
163 207
163 242
163 264
163 313
164 204
164 208
164 248
164 265
164 314
165 205
165 209
165 245
165 268
165 315
166 206
166 210
166 251
166 269
166 316
167 207
167 211
167 272
168 208
168 212
168 267
169 201
169 209
169 252
169 270
169 317
170 202
170 210
170 238
170 271
170 318
171 176
171 196
171 223
171 308
171 342
172 177
172 197
172 215
172 285
172 309
172 327
173 178
173 198
173 275
173 286
173 294
173 310
173 319
173 328
174 179
174 199
174 224
174 276
174 291
174 295
174 328
174 329
175 180
175 200
175 216
175 273
175 296
175 323
176 181
176 213
176 277
176 292
176 329
177 182
177 217
177 274
177 293
177 297
177 324
177 330
178 183
178 319
178 320
178 330
178 331
179 184
179 214
179 278
179 294
179 298
179 323
179 331
180 185
180 218
180 275
180 299
180 332
181 186
181 215
181 279
181 295
181 324
182 187
182 219
182 276
182 296
182 300
182 332
182 333
183 188
183 277
183 280
183 297
183 301
183 320
183 333
184 189
184 216
184 281
184 302
184 334
185 190
185 220
185 303
185 335
186 191
186 217
186 298
186 334
187 192
187 221
187 278
187 299
187 335
188 193
188 279
188 282
188 300
188 304
188 321
188 336
189 194
189 218
189 283
189 301
189 305
189 336
189 337
190 195
190 222
190 280
190 306
190 325
191 196
191 219
191 284
191 302
191 337
192 197
192 223
192 281
192 303
192 307
192 326
192 338
193 198
193 321
193 322
193 338
193 339
194 199
194 220
194 285
194 304
194 308
194 325
194 339
195 200
195 224
195 282
195 309
195 340
196 221
196 286
196 305
196 326
197 213
197 283
197 306
197 310
197 340
197 341
198 273
198 284
198 291
198 307
198 322
198 341
199 222
199 274
199 292
199 342
200 214
200 293
200 327
201 262
201 327
201 328
202 263
202 287
202 329
203 266
203 311
203 313
203 331
204 261
204 312
204 314
204 330
205 264
205 288
205 332
206 265
206 333
206 334
207 268
207 335
207 336
208 269
208 289
208 337
209 272
209 315
209 317
209 339
210 267
210 316
210 318
210 338
211 270
211 290
211 340
212 271
212 341
212 342
213 235
213 261
214 228
214 264
214 323
215 225
215 265
215 324
216 230
216 262
216 323
217 227
217 263
217 324
218 232
218 266
219 229
219 267
220 234
220 270
220 325
221 231
221 271
221 326
222 236
222 268
222 325
223 233
223 269
223 326
224 226
224 272
225 240
225 328
225 342
226 242
226 256
227 238
227 244
227 329
227 331
228 239
228 245
228 330
228 332
229 241
229 247
230 243
230 333
230 335
231 250
231 334
231 336
232 246
232 252
233 248
233 254
233 337
233 339
234 249
234 255
234 338
234 340
235 237
235 251
236 253
236 327
236 341
237 308
238 286
238 294
238 329
239 273
239 296
239 330
240 277
240 292
240 328
243 275
243 299
243 333
244 279
244 295
244 331
245 280
245 297
245 332
246 303
247 298
248 279
248 304
248 337
249 280
249 306
249 338
250 284
250 302
250 336
253 282
253 309
253 341
254 286
254 305
254 339
255 273
255 307
255 340
256 293
257 312
258 313
259 316
260 317
261 330
262 328
263 329
264 332
265 333
266 331
267 338
268 336
269 337
270 340
271 341
272 339
273 309
273 311
274 294
274 310
274 312
275 293
275 297
277 294
277 298
278 297
278 301
278 313
279 302
279 314
280 299
280 315
281 300
281 304
281 316
282 303
282 307
284 304
284 308
285 291
285 307
285 317
286 292
286 318
287 313
288 312
289 317
290 316
291 328
292 319
292 329
292 342
293 327
294 328
294 331
295 320
295 329
296 319
296 332
297 330
297 333
298 334
299 320
299 332
299 335
300 333
301 336
302 321
302 334
302 337
303 335
304 336
304 339
305 322
305 337
306 321
306 340
307 338
307 341
308 342
309 322
309 327
309 340
310 341
311 323
312 324
313 323
314 324
315 325
316 326
317 325
318 326
