0 155
0 156
0 157
0 158
0 159
0 160
0 161
0 162
0 163
0 164
0 165
0 166
0 167
0 168
0 169
0 170
0 171
0 172
1 119
1 124
1 135
1 143
1 147
1 169
1 190
1 196
1 208
1 218
2 125
2 132
2 144
2 148
2 154
2 161
2 186
2 191
2 207
2 209
3 125
3 137
3 145
3 149
3 172
3 192
3 208
3 210
4 126
4 134
4 146
4 150
4 164
4 189
4 209
4 211
5 126
5 127
5 139
5 147
5 153
5 157
5 185
5 190
5 210
5 212
6 120
6 121
6 136
6 140
6 148
6 167
6 191
6 193
6 211
6 213
7 117
7 121
7 129
7 141
7 149
7 160
7 192
7 194
7 212
7 214
8 122
8 138
8 142
8 150
8 152
8 170
8 188
8 195
8 213
8 215
9 122
9 131
9 139
9 143
9 163
9 196
9 214
9 216
10 123
10 128
10 140
10 144
10 155
10 193
10 215
10 217
11 123
11 133
11 141
11 145
11 151
11 166
11 187
11 194
11 216
11 218
12 118
12 124
12 130
12 142
12 146
12 158
12 189
12 195
12 207
12 217
13 104
13 105
13 123
13 125
13 130
13 135
13 175
13 182
13 197
13 200
13 208
13 217
13 227
13 238
13 239
13 246
14 106
14 107
14 124
14 126
14 132
14 137
14 177
14 184
14 198
14 207
14 210
14 228
14 229
14 240
15 108
15 109
15 121
15 125
15 127
15 134
15 174
15 179
15 197
15 209
15 212
15 230
15 231
15 241
16 99
16 110
16 122
16 126
16 129
16 136
16 176
16 181
16 198
16 199
16 211
16 214
16 232
16 233
16 242
16 243
17 100
17 101
17 121
17 123
17 131
17 138
17 178
17 183
17 200
17 213
17 216
17 234
17 235
17 244
18 102
18 103
18 122
18 124
18 128
18 133
18 173
18 180
18 199
18 215
18 218
18 236
18 237
18 245
19 88
19 105
19 108
19 144
19 149
19 219
19 227
19 230
19 248
19 249
20 89
20 107
20 110
20 139
20 146
20 222
20 229
20 232
20 250
20 251
21 84
21 99
21 102
21 143
21 150
21 223
21 233
21 236
21 254
21 255
22 85
22 101
22 104
22 140
22 145
22 226
22 235
22 238
22 256
22 257
23 80
23 87
23 88
23 96
23 104
23 107
23 113
23 115
23 131
23 136
23 154
23 176
23 183
23 191
23 196
23 202
23 206
23 226
23 246
23 247
23 248
23 259
23 260
24 81
24 95
24 98
24 106
24 109
24 114
24 116
24 133
24 138
24 173
24 178
24 201
24 203
24 220
24 221
24 240
24 241
24 249
24 250
24 261
24 262
24 271
25 82
25 89
25 90
25 97
25 99
25 108
25 111
25 115
25 128
25 135
25 153
25 175
25 180
25 190
25 193
25 202
25 204
25 223
25 243
25 251
25 252
25 263
25 264
26 77
26 83
26 84
26 92
26 101
26 110
26 112
26 116
26 130
26 137
26 152
26 177
26 182
26 192
26 195
26 203
26 205
26 222
26 242
26 253
26 254
26 265
26 266
27 78
27 91
27 94
27 100
27 103
27 111
27 113
27 127
27 132
27 179
27 184
27 204
27 206
27 224
27 225
27 244
27 245
27 255
27 256
27 267
27 268
27 272
28 79
28 85
28 86
28 93
28 102
28 105
28 112
28 114
28 129
28 134
28 151
28 174
28 181
28 189
28 194
28 201
28 205
28 219
28 239
28 257
28 258
28 269
28 270
29 71
29 94
29 96
29 142
29 148
29 209
29 217
29 225
29 260
29 273
29 285
30 72
30 97
30 143
30 149
30 210
30 218
30 259
30 274
30 286
31 73
31 98
31 118
31 144
31 150
31 207
31 211
31 219
31 262
31 275
31 286
32 74
32 95
32 117
32 139
32 145
32 208
32 212
32 222
32 261
32 276
32 287
33 75
33 96
33 140
33 146
33 209
33 213
33 264
33 277
33 287
34 76
34 91
34 97
34 141
34 147
34 210
34 214
34 224
34 263
34 278
34 288
35 65
35 92
35 98
35 142
35 148
35 211
35 215
35 221
35 266
35 279
35 288
36 66
36 93
36 143
36 149
36 212
36 216
36 265
36 280
36 289
37 67
37 94
37 120
37 144
37 150
37 213
37 217
37 223
37 268
37 281
37 289
38 68
38 91
38 119
38 139
38 145
38 214
38 218
38 226
38 267
38 282
38 290
39 69
39 92
39 140
39 146
39 207
39 215
39 270
39 283
39 290
40 70
40 93
40 95
40 141
40 147
40 208
40 216
40 220
40 269
40 284
40 285
41 70
41 72
41 115
41 159
41 169
41 190
41 237
41 274
41 291
42 71
42 73
42 113
42 161
42 171
42 230
42 273
42 292
43 72
43 74
43 116
43 162
43 172
43 192
43 227
43 276
43 293
44 73
44 75
44 114
44 156
44 164
44 189
44 232
44 275
44 294
45 74
45 76
45 111
45 157
45 165
45 229
45 278
45 295
46 65
46 75
46 115
46 159
46 167
46 191
46 234
46 277
46 296
47 66
47 76
47 112
47 160
47 168
47 194
47 231
47 280
47 297
48 65
48 67
48 116
48 162
48 170
48 236
48 279
48 298
49 66
49 68
49 113
49 163
49 171
49 196
49 233
49 282
49 299
50 67
50 69
50 111
50 155
50 165
50 193
50 238
50 281
50 300
51 68
51 70
51 114
51 156
51 166
51 235
51 284
51 301
52 69
52 71
52 112
52 158
52 168
52 195
52 228
52 283
52 302
53 60
53 70
53 81
53 108
53 123
53 183
53 202
53 238
53 249
53 285
53 292
53 304
54 59
54 73
54 79
54 103
54 126
54 176
54 206
54 229
54 258
54 286
54 291
54 303
55 62
55 72
55 82
55 110
55 124
55 173
55 203
55 228
55 251
55 286
55 294
55 306
56 61
56 75
56 80
56 105
56 121
56 178
56 201
56 231
56 248
56 287
56 293
56 305
57 64
57 74
57 77
57 100
57 125
57 175
57 204
57 230
57 253
57 287
57 296
57 308
58 63
58 65
58 81
58 107
58 122
58 180
58 202
58 233
58 250
58 288
58 295
58 307
59 76
59 78
59 102
59 126
59 177
59 205
59 232
59 255
59 288
59 298
59 310
60 67
60 82
60 109
60 123
60 182
60 203
60 235
60 252
60 289
60 297
60 309
61 66
61 79
61 104
61 121
61 179
61 206
61 234
61 257
61 289
61 300
61 312
62 69
62 77
62 99
62 124
62 184
62 204
62 237
62 254
62 290
62 299
62 311
63 68
63 80
63 106
63 122
63 181
63 201
63 236
63 247
63 290
63 302
63 314
64 71
64 78
64 101
64 125
64 174
64 205
64 227
64 256
64 285
64 301
64 313
65 69
65 73
65 81
65 142
65 159
65 170
65 237
65 292
65 302
65 315
66 70
66 74
66 79
66 149
66 160
66 171
66 230
66 291
66 293
67 71
67 75
67 82
67 120
67 144
67 155
67 162
67 227
67 292
67 294
68 72
68 76
68 80
68 119
68 139
68 156
68 163
68 232
68 293
68 295
69 73
69 77
69 146
69 158
69 165
69 229
69 294
69 296
70 74
70 81
70 141
70 159
70 166
70 234
70 295
70 297
70 316
71 75
71 78
71 148
71 161
71 168
71 231
71 296
71 298
71 317
72 76
72 82
72 143
72 162
72 169
72 236
72 297
72 299
73 79
73 118
73 150
73 164
73 171
73 233
73 298
73 300
74 77
74 117
74 145
74 165
74 172
74 238
74 299
74 301
75 80
75 140
75 156
75 167
75 235
75 300
75 302
76 78
76 147
76 157
76 168
76 228
76 291
76 301
76 318
77 85
77 130
77 137
77 229
77 238
77 261
77 270
77 315
77 319
77 320
78 87
78 90
78 127
78 132
78 228
78 231
78 260
78 263
79 84
79 129
79 134
79 230
79 233
79 262
79 265
79 316
79 321
79 322
80 89
80 131
80 136
80 232
80 235
80 264
80 267
80 317
80 323
80 324
81 83
81 86
81 133
81 138
81 234
81 237
81 266
81 269
82 88
82 128
82 135
82 227
82 236
82 259
82 268
82 318
82 325
82 326
83 112
83 141
83 240
83 269
83 283
83 304
83 319
83 327
84 116
84 150
84 152
84 239
84 262
84 276
84 303
84 320
84 328
85 114
85 145
85 151
85 242
85 261
85 275
85 308
85 321
85 329
86 112
86 142
86 241
86 266
86 280
86 307
86 322
86 330
87 115
87 147
87 244
87 263
87 277
87 310
87 323
87 330
88 113
88 144
88 154
88 243
88 268
88 282
88 309
88 324
88 331
89 111
89 139
89 153
89 246
89 267
89 281
89 314
89 325
89 332
90 115
90 148
90 245
90 260
90 274
90 313
90 326
90 327
91 103
91 184
91 210
91 218
91 291
92 110
92 120
92 177
92 207
92 211
92 294
93 105
93 119
93 174
93 208
93 212
93 293
94 100
94 179
94 209
94 213
94 296
95 109
95 178
95 212
95 216
95 297
96 104
96 118
96 183
96 213
96 217
96 300
97 99
97 117
97 180
97 214
97 218
97 299
98 106
98 173
98 207
98 215
98 302
99 102
99 126
99 190
99 237
99 286
99 314
99 320
99 327
100 109
100 123
100 186
100 230
100 271
100 285
100 305
100 319
100 328
101 104
101 121
101 192
101 227
101 287
101 304
101 328
101 333
102 124
102 189
102 232
102 286
102 307
102 329
102 334
103 106
103 122
103 185
103 229
103 271
103 288
103 306
103 322
103 329
104 125
104 191
104 234
104 287
104 309
104 321
104 330
105 108
105 123
105 194
105 231
105 289
105 308
105 324
105 330
106 126
106 188
106 236
106 272
106 288
106 311
106 323
106 331
107 110
107 124
107 196
107 233
107 290
107 310
107 331
107 335
108 121
108 193
108 238
108 289
108 313
108 332
108 336
109 125
109 187
109 235
109 272
109 285
109 312
109 326
109 332
110 122
110 195
110 228
110 290
110 303
110 325
110 327
111 202
111 206
111 229
111 238
111 318
112 201
112 203
112 228
112 231
112 349
113 202
113 204
113 230
113 233
113 317
114 203
114 205
114 232
114 235
114 316
115 204
115 206
115 234
115 237
115 350
116 201
116 205
116 227
116 236
116 315
117 141
117 175
117 320
118 142
118 176
118 321
119 147
119 181
119 324
120 148
120 182
120 325
121 129
121 136
121 197
121 200
121 248
121 257
121 304
121 313
121 337
121 348
122 131
122 138
122 152
122 198
122 247
122 250
122 303
122 306
122 338
122 339
123 128
123 133
123 151
123 197
123 249
123 252
123 305
123 308
123 340
123 341
124 130
124 135
124 198
124 199
124 251
124 254
124 307
124 310
124 342
124 343
125 132
125 137
125 154
125 200
125 253
125 256
125 309
125 312
125 344
125 345
126 127
126 134
126 153
126 199
126 255
126 258
126 311
126 314
126 346
126 347
127 154
127 185
127 209
127 225
127 326
128 218
128 246
129 211
129 219
129 241
129 320
129 334
129 349
130 208
130 222
130 240
130 321
130 333
130 349
131 213
131 243
132 153
132 186
132 210
132 224
132 323
133 152
133 187
133 215
133 221
133 322
134 212
134 242
135 217
135 223
135 245
135 324
135 336
135 350
136 214
136 226
136 244
136 325
136 335
136 350
137 207
137 239
138 151
138 188
138 216
138 220
138 319
139 190
139 196
139 284
139 314
139 338
140 191
140 226
140 275
140 305
140 337
141 192
141 221
141 274
141 304
141 340
142 189
142 220
142 277
142 307
142 339
143 190
143 223
143 276
143 306
143 342
144 191
144 193
144 279
144 309
144 341
145 192
145 194
145 278
145 308
145 344
146 195
146 222
146 281
146 311
146 343
147 196
147 225
147 280
147 310
147 346
148 193
148 224
148 283
148 313
148 345
149 194
149 219
149 282
149 312
149 348
150 189
150 195
150 273
150 303
150 347
151 239
151 262
151 319
152 242
152 261
152 322
153 243
153 268
153 323
154 246
154 267
154 326
155 158
155 170
155 197
155 217
155 292
156 159
156 171
156 293
156 302
157 160
157 172
157 210
157 291
158 161
158 198
158 207
158 294
158 349
159 162
159 292
159 295
160 163
160 197
160 212
160 293
160 349
161 164
161 209
161 296
162 165
162 294
162 297
163 166
163 198
163 214
163 295
164 167
164 199
164 211
164 298
165 168
165 296
165 299
166 169
166 216
166 297
167 170
167 200
167 213
167 300
167 350
168 171
168 298
168 301
169 172
169 199
169 218
169 299
169 350
170 215
170 302
171 291
171 300
172 200
172 208
172 301
173 185
173 237
173 286
173 326
173 338
173 351
174 230
174 285
174 337
174 352
175 227
175 287
175 320
175 340
175 353
176 232
176 286
176 321
176 339
176 354
177 229
177 288
177 342
177 355
178 186
178 234
178 287
178 323
178 341
178 356
179 187
179 231
179 289
179 322
179 344
179 357
180 236
180 288
180 343
180 358
181 233
181 290
181 324
181 346
181 359
182 238
182 289
182 325
182 345
182 360
183 235
183 285
183 348
183 361
184 188
184 228
184 290
184 319
184 347
184 362
185 241
185 338
186 240
186 341
187 245
187 344
188 244
188 347
189 258
189 275
190 251
190 274
191 248
191 277
192 253
192 276
193 252
193 281
194 257
194 280
195 254
195 283
196 247
196 282
197 349
197 352
197 353
198 349
198 354
198 355
199 350
199 358
199 359
200 350
200 360
200 361
201 261
201 270
201 293
201 302
201 351
201 352
201 363
202 260
202 263
202 292
202 295
202 353
202 354
203 262
203 265
203 294
203 297
203 355
203 356
203 364
204 264
204 267
204 296
204 299
204 357
204 358
204 365
205 266
205 269
205 298
205 301
205 359
205 360
206 259
206 268
206 291
206 300
206 361
206 362
206 366
207 240
207 283
208 239
208 276
208 333
209 273
210 278
211 242
211 275
211 334
212 241
212 280
213 244
213 277
214 243
214 282
214 335
215 279
216 284
217 246
217 281
217 336
218 245
218 274
219 286
219 348
219 363
220 271
220 285
220 315
220 339
220 363
221 271
221 288
221 316
221 340
221 364
222 287
222 343
222 364
223 289
223 342
223 365
224 272
224 288
224 317
224 345
224 365
225 272
225 285
225 318
225 346
225 366
226 290
226 337
226 366
227 238
227 249
227 328
227 352
228 229
228 258
228 318
228 327
228 351
229 251
229 329
229 354
230 231
230 248
230 328
230 353
231 253
231 317
231 330
231 356
232 233
232 250
232 329
232 355
233 255
233 331
233 358
234 235
234 252
234 316
234 330
234 357
235 257
235 332
235 360
236 237
236 254
236 331
236 359
237 247
237 315
237 327
237 362
238 256
238 332
238 361
239 269
239 320
240 262
240 319
240 349
241 261
241 322
241 349
242 266
242 321
243 263
243 324
244 268
244 323
244 350
245 267
245 326
245 350
246 260
246 325
247 338
247 362
247 363
248 333
248 337
248 353
248 363
249 340
249 352
250 339
250 355
251 334
251 342
251 354
251 364
252 341
252 357
252 364
253 344
253 356
253 365
254 335
254 343
254 359
254 365
255 346
255 358
256 345
256 361
257 336
257 348
257 360
257 366
258 347
258 351
258 366
259 286
259 326
259 348
260 285
260 339
261 287
261 320
261 338
262 286
262 321
262 341
263 288
263 340
264 287
264 323
264 343
265 289
265 322
265 342
266 288
266 345
267 290
267 324
267 344
268 289
268 325
268 347
269 285
269 346
270 290
270 319
270 337
273 328
274 327
275 329
276 328
277 330
278 329
279 331
280 330
281 332
282 331
283 327
284 332
285 304
285 313
286 303
286 306
286 334
287 305
287 308
287 333
288 307
288 310
289 309
289 312
289 336
290 311
290 314
290 335
291 362
292 353
293 352
294 355
295 354
296 357
297 356
298 359
299 358
300 361
301 360
302 351
303 314
304 305
306 307
308 309
310 311
312 313
315 320
315 363
316 321
316 364
317 324
317 365
318 325
318 366
337 348
337 352
338 339
338 351
339 354
340 341
340 353
341 356
342 343
342 355
343 358
344 345
344 357
345 360
346 347
346 359
347 362
348 361
351 362
352 353
354 355
356 357
358 359
360 361
