0 150
0 151
0 152
0 153
0 154
0 155
0 156
0 157
0 158
0 159
0 160
0 161
0 162
0 163
0 164
0 165
0 166
0 167
0 168
0 169
0 170
0 171
0 172
0 173
1 122
1 128
1 133
1 140
1 144
1 157
1 169
1 176
1 184
1 190
1 200
1 201
1 203
1 219
2 134
2 141
2 145
2 171
2 177
2 185
2 189
2 191
2 202
2 204
3 133
3 142
3 146
3 160
3 174
3 178
3 190
3 192
3 204
3 206
4 123
4 124
4 129
4 134
4 143
4 147
4 149
4 150
4 162
4 175
4 179
4 191
4 193
4 205
4 207
5 125
5 126
5 129
5 135
5 136
5 144
5 153
5 165
5 176
5 180
5 192
5 194
5 207
5 209
5 220
6 130
6 137
6 145
6 155
6 177
6 181
6 193
6 195
6 208
6 210
7 135
7 138
7 146
7 168
7 178
7 182
7 194
7 196
7 210
7 212
8 117
8 118
8 127
8 130
8 139
8 147
8 158
8 170
8 179
8 183
8 195
8 197
8 211
8 213
8 221
9 119
9 120
9 127
9 131
9 136
9 140
9 148
9 161
9 173
9 180
9 184
9 196
9 198
9 213
9 215
10 132
10 137
10 141
10 163
10 181
10 185
10 197
10 199
10 214
10 216
11 131
11 138
11 142
11 152
11 174
11 182
11 198
11 200
11 216
11 218
12 121
12 128
12 132
12 139
12 143
12 154
12 166
12 175
12 183
12 189
12 199
12 201
12 217
12 222
13 97
13 98
13 109
13 110
13 128
13 129
13 186
13 187
13 189
13 192
13 219
14 90
14 101
14 102
14 113
14 127
14 129
14 187
14 188
14 193
14 196
14 220
14 221
15 93
15 94
15 105
15 106
15 127
15 128
15 186
15 188
15 197
15 200
15 222
16 86
16 99
16 115
16 158
16 172
16 201
16 206
16 224
16 228
16 229
17 85
17 96
17 116
17 125
17 148
17 159
17 173
17 202
17 207
17 223
17 230
17 231
18 88
18 101
18 117
18 154
18 165
18 211
19 78
19 91
19 116
19 124
19 156
19 166
19 207
19 212
19 234
19 235
20 89
20 100
20 114
20 119
20 157
20 167
20 208
20 213
20 236
20 237
21 79
21 90
21 126
21 158
21 169
21 209
22 82
22 95
22 114
22 118
22 149
22 150
22 164
22 213
22 218
22 226
22 240
22 241
23 81
23 92
23 115
23 151
23 165
23 201
23 214
23 225
23 242
23 243
24 83
24 86
24 107
24 110
24 177
24 184
24 229
25 85
25 88
25 109
25 112
25 174
25 179
25 230
26 78
26 87
26 102
26 111
26 176
26 181
26 235
27 80
27 89
27 104
27 113
27 178
27 183
27 236
28 79
28 82
28 103
28 106
28 180
28 185
28 241
29 81
29 84
29 105
29 108
29 175
29 182
29 242
30 63
30 64
30 82
30 86
30 123
30 139
30 145
30 191
30 199
30 226
30 228
30 258
31 65
31 66
31 75
31 83
31 87
31 125
31 140
31 146
31 192
31 200
31 227
31 248
31 250
32 66
32 67
32 76
32 84
32 88
32 141
32 147
32 189
32 193
32 232
32 249
32 251
33 68
33 69
33 85
33 89
33 122
33 136
33 142
33 190
33 194
33 231
33 259
34 69
34 70
34 78
34 86
34 117
34 137
34 143
34 191
34 195
34 224
34 234
34 260
35 54
35 71
35 77
35 79
35 87
35 119
35 138
35 144
35 192
35 196
35 233
35 252
36 54
36 55
36 72
36 80
36 88
36 124
36 139
36 145
36 193
36 197
36 238
36 253
37 56
37 57
37 81
37 89
37 126
37 140
37 146
37 194
37 198
37 225
37 237
37 261
38 57
38 58
38 78
38 82
38 121
38 141
38 147
38 195
38 199
38 240
38 262
39 59
39 60
39 73
39 79
39 83
39 136
39 142
39 196
39 200
39 239
39 254
39 256
40 60
40 61
40 74
40 80
40 84
40 118
40 137
40 143
40 189
40 197
40 244
40 255
40 257
41 62
41 63
41 81
41 85
41 120
41 138
41 144
41 190
41 198
41 223
41 243
41 263
42 62
42 65
42 94
42 99
42 156
42 169
42 176
42 229
42 248
42 263
42 264
43 63
43 66
43 74
43 95
43 157
43 171
43 177
43 184
43 231
43 244
43 245
43 249
43 265
44 66
44 69
44 77
44 100
44 150
44 160
44 174
44 179
44 228
44 233
44 245
44 250
44 266
45 67
45 70
45 96
45 101
45 151
45 162
45 175
45 230
45 251
45 260
45 267
46 68
46 71
46 91
46 98
46 153
46 164
46 180
46 235
46 252
46 259
46 268
47 54
47 69
47 76
47 99
47 155
47 165
47 176
47 181
47 232
47 237
47 246
47 269
48 54
48 57
48 73
48 92
48 158
48 168
48 178
48 183
48 234
48 239
48 246
48 270
49 55
49 58
49 93
49 100
49 159
49 170
49 179
49 236
49 253
49 262
49 271
50 56
50 59
50 90
50 95
50 161
50 172
50 184
50 241
50 254
50 261
50 272
51 57
51 60
51 72
51 91
51 163
51 173
51 180
51 185
51 238
51 243
51 247
51 255
51 273
52 60
52 63
52 75
52 96
52 152
52 166
52 175
52 182
52 227
52 240
52 247
52 256
52 274
53 61
53 64
53 92
53 97
53 154
53 167
53 183
53 242
53 257
53 258
53 275
54 60
54 66
54 92
54 99
54 138
54 145
54 155
54 168
54 204
54 216
54 228
54 243
54 248
54 257
54 265
54 274
54 276
54 287
55 61
55 67
55 93
55 124
55 139
55 156
55 170
55 205
55 217
55 230
55 249
55 275
55 288
56 62
56 68
56 95
56 146
56 172
56 206
56 218
56 264
56 289
57 63
57 69
57 121
57 126
57 140
57 147
57 158
57 173
57 201
57 207
57 227
57 232
57 265
57 266
57 277
57 278
57 289
57 290
58 64
58 70
58 100
58 141
58 159
58 202
58 208
58 267
58 290
59 65
59 71
59 90
59 136
59 151
59 161
59 203
59 209
59 229
59 250
59 268
59 291
60 66
60 91
60 96
60 137
60 142
60 152
60 163
60 204
60 210
60 231
60 234
60 251
60 252
60 266
60 269
60 279
60 280
61 67
61 97
61 118
61 143
61 154
61 164
61 205
61 211
61 236
61 267
61 292
62 68
62 99
62 138
62 156
62 206
62 212
62 268
62 293
63 69
63 120
63 123
63 139
63 144
63 157
63 166
63 207
63 213
63 233
63 238
63 269
63 270
63 281
63 282
63 293
63 294
64 70
64 92
64 145
64 167
64 208
64 214
64 271
64 294
65 71
65 94
65 125
65 140
65 159
65 169
65 209
65 215
65 235
65 272
65 295
66 95
66 100
66 141
66 146
66 160
66 171
66 210
66 216
66 237
66 240
66 253
66 254
66 270
66 273
66 283
66 284
67 101
67 147
67 162
67 172
67 211
67 217
67 242
67 255
67 271
67 296
68 91
68 142
68 164
68 212
68 218
68 272
68 297
69 117
69 122
69 136
69 143
69 150
69 165
69 201
69 213
69 239
69 244
69 273
69 274
69 285
69 286
69 297
69 298
70 96
70 137
70 151
70 202
70 214
70 275
70 298
71 98
71 119
71 144
71 153
71 167
71 203
71 215
71 241
71 256
71 264
71 299
72 88
72 106
72 132
72 185
72 222
72 251
72 276
72 288
73 83
73 113
73 135
73 178
73 220
73 248
73 279
73 291
74 80
74 110
74 134
74 177
74 253
74 280
74 292
75 87
75 105
75 131
75 182
75 252
75 283
75 295
76 84
76 102
76 130
76 181
76 221
76 257
76 284
76 296
77 79
77 109
77 133
77 174
77 219
77 254
77 287
77 299
78 111
78 124
78 191
78 199
78 274
78 277
78 304
79 106
79 126
79 192
79 200
79 264
79 266
79 276
80 113
80 121
80 189
80 193
80 265
80 267
80 279
80 300
81 108
81 190
81 194
81 269
81 278
81 305
82 103
82 118
82 149
82 191
82 195
82 266
82 281
82 306
83 110
83 120
83 192
83 196
83 268
83 270
83 280
83 301
84 105
84 123
84 193
84 197
84 269
84 271
84 283
84 302
85 112
85 125
85 148
85 194
85 198
85 273
85 282
85 307
86 107
86 195
86 199
86 270
86 285
86 308
87 102
87 122
87 196
87 200
87 272
87 274
87 284
87 303
88 109
88 117
88 189
88 197
88 273
88 275
88 287
89 104
89 119
89 190
89 198
89 265
89 286
89 309
90 155
90 169
90 229
90 299
90 309
90 310
91 116
91 156
91 171
91 231
91 289
91 311
92 115
92 151
92 160
92 228
92 290
92 315
93 152
93 162
93 230
93 292
93 300
93 306
93 316
94 153
94 163
94 235
94 291
94 301
94 305
94 316
95 114
95 155
95 164
95 237
95 293
95 317
96 116
96 159
96 168
96 234
96 294
96 321
97 160
97 170
97 236
97 296
97 302
97 308
97 322
98 161
98 171
98 241
98 295
98 303
98 307
98 322
99 115
99 163
99 172
99 243
99 297
99 323
100 114
100 152
100 167
100 240
100 298
100 327
101 154
101 168
101 242
101 288
101 304
101 310
102 105
102 129
102 176
102 205
102 304
103 112
103 185
103 218
104 107
104 178
104 208
105 128
105 175
105 203
105 305
106 109
106 127
106 180
106 211
106 306
107 177
107 206
108 111
108 182
108 214
109 129
109 179
109 209
109 307
110 113
110 128
110 184
110 217
110 308
111 181
111 212
112 174
112 202
113 127
113 183
113 215
113 309
114 312
114 314
115 318
115 320
116 324
116 326
117 139
117 224
117 275
117 304
117 328
117 334
118 147
118 258
118 266
118 328
119 140
119 219
119 259
119 265
119 329
120 136
120 148
120 223
120 268
120 305
120 329
120 335
121 143
121 267
121 306
121 330
121 336
122 140
122 272
122 307
122 331
122 337
123 147
123 149
123 226
123 271
123 308
123 332
123 338
124 143
124 222
124 262
124 274
124 332
125 136
125 263
125 273
125 333
126 144
126 225
126 264
126 309
126 333
126 339
127 186
127 187
127 288
127 291
127 300
128 187
128 188
128 292
128 295
128 301
128 302
129 186
129 188
129 296
129 299
129 303
130 155
130 170
130 249
130 257
130 334
131 152
131 161
131 250
131 252
131 335
132 154
132 163
132 251
132 336
133 160
133 169
133 254
133 337
134 162
134 171
134 253
134 255
134 338
135 153
135 168
135 248
135 256
135 339
136 176
136 184
136 231
136 250
136 309
137 177
137 185
137 244
137 251
137 334
138 174
138 178
138 233
138 248
138 335
138 340
139 175
139 179
139 228
139 249
139 306
140 176
140 180
140 237
140 305
141 177
141 181
141 232
141 253
141 336
141 341
142 178
142 182
142 239
142 252
142 337
142 342
143 179
143 183
143 234
143 308
144 180
144 184
144 243
144 256
144 307
145 181
145 185
145 238
145 257
145 338
145 343
146 174
146 182
146 227
146 254
146 339
147 175
147 183
147 240
147 255
147 304
148 259
148 282
149 262
149 281
150 155
150 171
150 191
150 226
150 245
150 274
150 289
150 299
150 312
150 327
150 328
150 357
151 156
151 172
151 224
151 275
151 290
151 310
151 313
151 347
152 157
152 173
152 200
152 266
152 311
152 314
152 340
152 344
152 347
152 348
152 358
153 186
153 192
153 264
153 291
153 329
154 187
154 189
154 267
154 288
154 328
154 348
155 158
155 193
155 265
155 312
155 315
155 344
155 349
155 359
156 159
156 223
156 268
156 289
156 313
156 316
156 340
156 349
157 160
157 190
157 245
157 269
157 290
157 292
157 314
157 317
157 329
157 360
158 163
158 195
158 224
158 246
158 266
158 291
158 293
158 315
158 318
158 330
158 361
159 164
159 267
159 294
159 316
159 319
159 341
159 350
160 165
160 192
160 270
160 317
160 320
160 342
160 345
160 350
160 351
160 362
161 187
161 196
161 268
161 295
161 331
161 352
162 188
162 193
162 271
162 292
162 330
162 351
163 166
163 197
163 269
163 318
163 321
163 341
163 345
163 352
163 353
163 363
164 167
164 272
164 293
164 319
164 322
164 342
164 353
165 168
165 194
165 225
165 246
165 273
165 294
165 296
165 320
165 323
165 331
165 364
166 171
166 199
166 247
166 270
166 295
166 297
166 321
166 324
166 332
166 365
167 172
167 226
167 271
167 298
167 322
167 325
167 343
167 354
168 173
168 196
168 274
168 323
168 326
168 346
168 354
168 366
169 188
169 200
169 272
169 299
169 333
169 355
170 186
170 197
170 275
170 296
170 332
171 189
171 273
171 324
171 327
171 343
171 346
171 355
171 356
171 367
172 225
172 264
172 297
172 310
172 325
172 356
173 198
173 223
173 247
173 265
173 288
173 298
173 311
173 326
173 333
173 368
174 250
174 287
174 347
174 369
175 222
175 251
175 278
175 304
175 348
176 220
176 248
176 277
176 305
177 249
177 280
177 349
178 279
178 350
179 253
179 282
179 306
179 351
180 252
180 281
180 307
180 352
181 284
181 353
182 256
182 283
182 354
183 221
183 257
183 286
183 308
184 219
184 254
184 285
184 309
184 355
185 255
185 276
185 356
185 370
189 204
189 217
189 249
189 257
189 328
189 370
190 201
190 206
190 329
191 202
191 207
191 328
192 204
192 209
192 250
192 252
192 301
192 329
193 205
193 210
193 251
193 300
193 330
194 207
194 212
194 331
195 208
195 213
195 330
196 210
196 215
196 254
196 303
196 331
197 211
197 216
197 253
197 255
197 302
197 332
198 213
198 218
198 333
199 201
199 214
199 332
200 203
200 216
200 248
200 256
200 333
200 369
201 228
201 243
201 277
201 286
202 230
202 327
202 347
203 314
204 227
204 232
204 276
204 279
204 347
204 349
205 312
205 348
206 229
206 317
206 349
207 231
207 234
207 278
207 281
208 236
208 315
208 350
209 320
209 352
210 233
210 238
210 280
210 283
210 350
210 353
211 318
211 351
212 235
212 323
212 353
213 237
213 240
213 282
213 285
214 242
214 321
214 354
215 326
215 355
216 239
216 244
216 284
216 287
216 354
216 356
217 324
218 241
218 311
218 356
219 245
219 299
220 246
220 291
221 246
221 296
222 247
222 288
223 263
223 278
223 340
224 260
224 277
225 261
225 286
226 258
226 285
226 343
227 274
227 289
227 339
227 347
227 368
228 258
228 266
228 359
229 264
229 291
229 349
230 267
230 288
230 347
231 259
231 265
231 358
232 269
232 290
232 336
232 349
232 361
233 266
233 293
233 335
233 350
233 360
234 260
234 270
234 363
235 268
235 295
235 353
236 271
236 292
236 350
237 261
237 269
237 362
238 273
238 294
238 338
238 353
238 365
239 270
239 297
239 337
239 354
239 364
240 262
240 274
240 367
241 272
241 299
241 356
242 275
242 296
242 354
243 263
243 273
243 366
244 265
244 298
244 334
244 356
244 357
248 263
248 340
248 369
249 300
249 334
249 349
250 335
250 347
251 260
251 348
252 259
252 342
252 352
253 262
253 341
253 351
254 261
254 355
255 338
255 356
256 303
256 339
256 354
257 258
257 343
257 370
258 328
259 329
260 330
261 331
262 332
263 333
264 289
264 299
264 339
265 290
265 309
265 344
266 289
266 306
266 344
267 290
267 292
267 336
268 291
268 293
268 335
269 294
269 305
269 345
270 293
270 308
270 345
271 294
271 296
271 338
272 295
272 297
272 337
273 298
273 307
273 346
274 297
274 304
274 346
275 288
275 298
275 334
276 287
276 370
277 278
277 304
278 305
279 280
279 340
280 341
281 282
281 306
282 307
283 284
283 342
284 343
285 286
285 308
286 309
287 369
288 313
288 348
289 311
289 349
289 371
290 315
290 347
290 371
291 313
292 319
292 351
293 317
293 353
293 372
294 321
294 350
294 372
295 319
295 352
296 325
297 323
297 356
297 373
298 327
298 354
298 373
299 325
299 355
300 306
300 344
301 305
301 345
302 308
302 345
303 307
303 346
304 328
305 329
306 330
307 331
308 332
309 333
311 327
311 358
311 368
312 314
312 357
312 359
312 371
314 358
314 360
314 371
315 317
315 359
315 361
317 360
317 362
318 320
318 361
318 363
318 372
320 362
320 364
320 372
321 323
321 363
321 365
323 364
323 366
324 326
324 365
324 367
324 373
326 366
326 368
326 373
327 357
327 367
334 370
335 340
336 341
337 342
338 343
339 369
340 347
341 353
342 350
343 356
347 369
347 371
349 371
350 372
353 372
354 373
356 370
356 373
