0 148
0 149
0 150
0 151
0 152
0 153
0 154
0 155
0 156
0 157
0 158
0 159
0 160
0 161
0 162
0 163
0 164
0 165
0 166
0 167
0 168
0 169
0 170
0 171
1 128
1 132
1 140
1 144
1 154
1 174
1 182
1 188
1 198
1 199
1 201
2 121
2 122
2 129
2 133
2 141
2 145
2 156
2 168
2 175
2 183
2 187
2 189
2 200
2 202
3 123
3 129
3 134
3 142
3 146
3 159
3 171
3 172
3 176
3 188
3 190
3 202
3 204
3 217
4 135
4 143
4 147
4 149
4 173
4 177
4 189
4 191
4 203
4 205
5 134
5 136
5 144
5 162
5 174
5 178
5 190
5 192
5 205
5 207
6 124
6 125
6 126
6 135
6 137
6 145
6 152
6 164
6 175
6 179
6 191
6 193
6 206
6 208
7 116
7 117
7 126
7 130
7 138
7 146
7 155
7 167
7 176
7 180
7 192
7 194
7 208
7 210
8 131
8 139
8 147
8 157
8 177
8 181
8 193
8 195
8 209
8 211
9 130
9 136
9 140
9 170
9 178
9 182
9 194
9 196
9 211
9 213
10 118
10 127
10 131
10 137
10 141
10 148
10 160
10 179
10 183
10 195
10 197
10 212
10 214
10 218
11 119
11 120
11 127
11 132
11 138
11 142
11 151
11 163
11 172
11 180
11 196
11 198
11 214
11 216
12 128
12 133
12 139
12 143
12 165
12 173
12 181
12 187
12 197
12 199
12 215
13 94
13 95
13 106
13 107
13 127
13 129
13 184
13 186
13 188
13 197
14 98
14 99
14 110
14 111
14 126
14 129
14 184
14 185
14 189
14 192
14 217
15 101
15 112
15 191
15 194
16 90
16 91
16 102
16 103
16 126
16 127
16 185
16 186
16 193
16 196
16 218
17 82
17 93
17 115
17 153
17 167
17 202
17 215
17 224
17 225
17 226
18 87
18 100
18 115
18 122
18 150
18 160
18 202
18 207
18 221
18 229
18 230
19 86
19 97
19 113
19 116
19 151
19 161
19 203
19 208
19 220
19 231
19 232
20 79
20 92
20 113
20 125
20 158
20 168
20 208
20 213
20 223
20 235
20 236
21 78
21 89
21 114
21 119
21 159
21 169
21 209
21 214
21 222
21 237
21 238
22 83
22 96
22 114
22 152
22 166
22 201
22 214
22 219
22 241
22 242
23 82
23 85
23 106
23 109
23 175
23 182
23 225
24 84
24 87
24 108
24 111
24 172
24 177
24 230
25 77
25 86
25 101
25 110
25 174
25 179
25 231
26 79
26 88
26 103
26 112
26 176
26 181
26 236
27 78
27 81
27 102
27 105
27 178
27 183
27 237
28 80
28 83
28 104
28 107
28 173
28 180
28 242
29 62
29 63
29 74
29 81
29 85
29 139
29 145
29 189
29 197
29 227
29 247
29 255
30 64
30 65
30 82
30 86
30 120
30 140
30 146
30 190
30 198
30 220
30 226
30 256
31 65
31 66
31 83
31 87
31 124
31 141
31 147
31 187
31 191
31 219
31 229
31 257
32 67
32 68
32 75
32 84
32 88
32 116
32 136
32 142
32 188
32 192
32 228
32 248
33 68
33 69
33 76
33 77
33 85
33 122
33 137
33 143
33 189
33 193
33 233
33 249
33 250
34 53
34 70
34 78
34 86
34 123
34 138
34 144
34 190
34 194
34 222
34 232
34 258
35 53
35 54
35 79
35 87
35 118
35 139
35 145
35 191
35 195
35 221
35 235
35 259
36 55
36 56
36 71
36 80
36 88
36 119
36 140
36 146
36 192
36 196
36 234
36 251
36 252
37 56
37 57
37 72
37 77
37 81
37 125
37 141
37 147
37 193
37 197
37 239
37 253
38 58
38 59
38 78
38 82
38 117
38 136
38 142
38 194
38 198
38 224
38 238
38 260
39 59
39 60
39 79
39 83
39 121
39 137
39 143
39 187
39 195
39 223
39 241
39 261
40 61
40 62
40 73
40 80
40 84
40 138
40 144
40 188
40 196
40 240
40 246
40 254
41 62
41 65
41 75
41 97
41 154
41 168
41 175
41 182
41 228
41 241
41 246
41 262
42 63
42 66
42 93
42 98
42 156
42 169
42 183
42 225
42 247
42 257
42 263
43 64
43 67
43 95
43 100
43 158
43 171
43 176
43 230
43 248
43 256
43 264
44 65
44 68
44 74
44 96
44 149
44 159
44 172
44 177
44 227
44 232
44 243
44 249
44 265
45 53
45 68
45 71
45 89
45 152
45 162
45 174
45 179
45 229
45 234
45 243
45 244
45 266
46 54
46 69
46 90
46 97
46 153
46 164
46 175
46 231
46 250
46 259
46 267
47 55
47 70
47 92
47 99
47 155
47 166
47 180
47 236
47 251
47 258
47 268
48 53
48 56
48 76
48 100
48 157
48 167
48 176
48 181
48 233
48 238
48 244
48 245
48 269
49 56
49 59
49 73
49 93
49 160
49 170
49 178
49 183
49 235
49 240
49 245
49 252
49 270
50 57
50 60
50 89
50 94
50 148
50 161
50 179
50 237
50 253
50 261
50 271
51 58
51 61
51 91
51 96
51 150
51 163
51 172
51 242
51 254
51 260
51 272
52 59
52 62
52 72
52 92
52 151
52 165
52 173
52 180
52 226
52 239
52 255
52 273
53 59
53 65
53 118
53 123
53 138
53 145
53 152
53 167
53 202
53 214
53 227
53 240
53 262
53 273
53 274
53 285
53 286
53 297
54 60
54 66
54 97
54 139
54 153
54 203
54 215
54 263
54 286
55 61
55 67
55 99
55 119
55 146
55 155
55 169
55 204
55 216
55 242
55 246
55 264
55 287
56 62
56 68
56 93
56 100
56 140
56 147
56 157
56 170
56 199
56 205
56 226
56 229
56 247
56 248
56 262
56 265
56 275
56 276
57 63
57 69
57 94
57 125
57 141
57 148
57 158
57 200
57 206
57 231
57 249
57 263
57 288
58 64
58 70
58 96
58 136
58 150
58 201
58 207
58 264
58 289
59 65
59 117
59 121
59 137
59 142
59 151
59 160
59 202
59 208
59 228
59 233
59 265
59 266
59 277
59 278
59 289
59 290
60 66
60 89
60 143
60 161
60 203
60 209
60 267
60 290
61 67
61 91
61 138
61 153
61 163
61 204
61 210
61 230
61 268
61 291
62 68
62 92
62 97
62 139
62 144
62 154
62 165
62 205
62 211
62 232
62 235
62 250
62 251
62 266
62 269
62 279
62 280
63 69
63 98
63 145
63 156
63 166
63 206
63 212
63 237
63 267
63 292
64 70
64 100
64 140
64 158
64 207
64 213
64 268
64 293
65 120
65 124
65 141
65 146
65 159
65 168
65 208
65 214
65 234
65 239
65 269
65 270
65 281
65 282
65 293
65 294
66 93
66 147
66 169
66 209
66 215
66 271
66 294
67 95
67 116
67 142
67 161
67 171
67 210
67 216
67 236
67 252
67 272
67 295
68 89
68 96
68 136
68 143
68 149
68 162
68 199
68 211
68 238
68 241
68 253
68 254
68 270
68 273
68 283
68 284
69 90
69 122
69 137
69 150
69 164
69 200
69 212
69 225
69 255
69 271
69 296
70 92
70 144
70 166
70 201
70 213
70 272
70 297
71 80
71 110
71 134
71 174
71 217
71 254
71 275
71 287
72 77
72 107
72 133
72 173
72 250
72 276
72 288
73 84
73 102
73 130
73 178
73 248
73 279
73 291
74 81
74 111
74 135
74 177
74 253
74 280
74 292
75 88
75 106
75 132
75 182
75 251
75 283
75 295
76 85
76 103
76 131
76 181
76 218
76 247
76 284
76 296
77 110
77 118
77 189
77 197
77 263
77 273
77 275
77 298
78 105
78 119
78 190
78 198
78 265
78 274
78 304
79 112
79 125
79 187
79 191
79 262
79 277
79 305
80 107
80 117
80 188
80 192
80 264
80 266
80 276
80 299
81 102
81 121
81 189
81 193
81 265
81 267
81 279
81 300
82 109
82 190
82 194
82 269
82 278
82 306
83 104
83 191
83 195
83 266
83 281
83 307
84 111
84 120
84 192
84 196
84 268
84 270
84 280
84 301
85 106
85 124
85 193
85 197
85 269
85 271
85 283
85 302
86 101
86 116
86 194
86 198
86 273
86 282
86 308
87 108
87 122
87 187
87 195
87 270
87 285
87 309
88 103
88 123
88 188
88 196
88 262
88 272
88 284
88 303
89 114
89 154
89 169
89 241
89 286
89 312
90 156
90 170
90 225
90 288
90 298
90 305
90 313
91 157
91 171
91 230
91 287
91 299
91 304
91 313
92 113
92 149
92 158
92 232
92 289
92 314
93 115
93 153
93 162
93 229
93 290
93 318
94 154
94 164
94 231
94 292
94 300
94 307
94 319
95 155
95 165
95 236
95 291
95 301
95 306
95 319
96 114
96 157
96 166
96 238
96 293
96 320
97 113
97 161
97 170
97 235
97 294
97 324
98 148
98 162
98 237
98 296
98 302
98 309
98 325
99 149
99 163
99 242
99 295
99 303
99 308
99 325
100 115
100 150
100 165
100 226
100 297
100 326
101 104
101 174
101 203
102 111
102 127
102 183
102 216
102 304
103 106
103 126
103 176
103 206
103 305
104 128
104 173
104 201
105 108
105 178
105 209
106 129
106 175
106 204
106 306
107 110
107 127
107 180
107 212
107 307
108 177
108 207
109 112
109 128
109 182
109 215
110 126
110 179
110 210
110 308
111 129
111 172
111 200
111 309
112 181
112 213
113 311
113 327
114 315
114 317
115 321
115 323
116 138
116 256
116 273
116 328
117 146
117 224
117 264
117 304
117 328
117 334
118 141
118 221
118 263
118 305
118 329
118 335
119 142
119 217
119 258
119 265
119 330
120 138
120 220
120 268
120 306
120 330
120 336
121 145
121 223
121 267
121 307
121 331
121 337
122 141
122 218
122 259
122 270
122 331
123 142
123 222
123 272
123 308
123 332
123 338
124 137
124 219
124 271
124 309
124 333
124 339
125 145
125 261
125 262
125 333
126 184
126 186
126 287
126 296
126 298
126 303
127 184
127 185
127 288
127 291
127 299
127 300
129 185
129 186
129 292
129 295
129 301
129 302
130 155
130 170
130 246
130 248
130 334
131 148
131 157
131 247
131 249
131 335
132 154
132 163
132 251
132 336
133 156
133 165
133 250
133 337
134 162
134 171
134 252
134 254
134 338
135 149
135 164
135 253
135 255
135 339
136 174
136 182
136 228
136 254
136 334
136 340
137 175
137 183
137 241
137 255
137 305
138 172
138 176
138 232
138 304
139 173
139 177
139 227
139 250
139 335
139 341
140 174
140 178
140 234
140 248
140 336
140 342
141 175
141 179
141 229
141 249
141 307
142 176
142 180
142 238
142 252
142 306
143 177
143 181
143 233
143 253
143 337
143 343
144 178
144 182
144 240
144 251
144 338
144 344
145 179
145 183
145 235
145 309
146 172
146 180
146 226
146 246
146 308
147 173
147 181
147 239
147 247
147 339
147 345
148 184
148 197
148 263
148 296
148 333
149 152
149 168
149 189
149 273
149 312
149 327
149 345
149 349
149 359
150 153
150 169
150 224
150 264
150 297
150 310
150 313
150 340
150 349
151 154
151 170
151 198
151 220
151 265
151 286
151 288
151 311
151 314
151 328
151 360
152 157
152 191
152 219
152 243
152 262
152 287
152 289
152 312
152 315
152 329
152 361
153 158
153 221
153 263
153 290
153 313
153 316
153 341
153 350
154 159
154 188
154 266
154 314
154 317
154 342
154 346
154 350
154 351
154 362
155 184
155 192
155 264
155 291
155 330
155 352
156 185
156 189
156 267
156 288
156 329
156 351
157 160
157 193
157 244
157 265
157 315
157 318
157 341
157 346
157 352
157 353
157 363
158 161
158 220
158 268
158 289
158 316
158 319
158 342
158 353
159 162
159 190
159 222
159 243
159 269
159 290
159 292
159 317
159 320
159 330
159 347
159 364
160 165
160 195
160 221
160 245
160 266
160 291
160 293
160 318
160 321
160 331
160 347
160 365
161 166
161 223
161 267
161 294
161 319
161 322
161 343
161 354
162 167
162 192
162 244
162 270
162 320
162 323
162 344
162 348
162 354
162 355
162 366
163 185
163 196
163 268
163 295
163 332
163 356
164 186
164 193
164 271
164 292
164 331
164 355
165 168
165 197
165 269
165 321
165 324
165 343
165 348
165 356
165 357
165 367
166 169
166 222
166 272
166 293
166 322
166 325
166 344
166 357
167 170
167 194
167 224
167 245
167 273
167 294
167 296
167 323
167 326
167 332
167 368
168 187
168 223
168 270
168 295
168 297
168 324
168 327
168 333
168 369
169 219
169 271
169 286
169 310
169 325
169 345
169 358
170 196
170 262
170 311
170 326
170 340
170 358
170 370
171 186
171 188
171 272
171 287
171 328
172 217
172 254
172 285
172 304
173 255
173 276
173 349
174 275
174 350
175 250
175 278
175 305
175 351
176 248
176 277
176 306
176 352
177 249
177 280
177 353
178 252
178 279
178 354
179 253
179 282
179 307
179 355
180 251
180 281
180 308
180 356
181 284
181 357
182 246
182 283
182 358
183 218
183 247
183 274
183 309
187 202
187 215
187 333
188 199
188 204
188 246
188 248
188 299
188 328
189 200
189 205
189 247
189 249
189 298
189 329
190 202
190 207
190 330
191 203
191 208
191 329
192 205
192 210
192 251
192 301
192 330
193 206
193 211
193 250
193 300
193 331
194 208
194 213
194 332
195 209
195 214
195 331
196 211
196 216
196 252
196 254
196 303
196 332
197 199
197 212
197 253
197 255
197 302
197 333
198 201
198 214
198 328
199 227
199 240
199 275
199 284
199 349
199 358
200 327
201 242
201 314
201 349
202 226
202 229
202 274
202 277
203 231
203 312
203 350
204 317
204 352
205 228
205 233
205 276
205 279
205 350
205 353
206 315
206 351
207 230
207 320
207 353
208 232
208 235
208 278
208 281
209 237
209 318
209 354
210 323
210 356
211 234
211 239
211 280
211 283
211 354
211 357
212 321
212 355
213 236
213 326
213 357
214 238
214 241
214 282
214 285
215 225
215 324
215 358
216 311
217 243
217 287
218 245
218 296
219 257
219 285
219 345
220 256
220 278
220 342
221 259
221 277
221 341
222 258
222 282
222 344
223 261
223 281
223 343
224 260
224 274
224 340
225 263
225 296
225 358
226 256
226 273
226 370
227 265
227 286
227 335
227 349
227 361
228 262
228 289
228 334
228 350
228 360
229 257
229 266
229 363
230 264
230 291
230 353
231 267
231 288
231 350
232 258
232 265
232 362
233 269
233 290
233 337
233 353
233 365
234 266
234 293
234 336
234 354
234 364
235 259
235 270
235 367
236 268
236 295
236 357
237 271
237 292
237 354
238 260
238 269
238 366
239 273
239 294
239 339
239 357
239 369
240 270
240 297
240 338
240 358
240 368
241 261
241 262
241 359
242 272
242 287
242 349
246 303
246 334
246 358
247 257
247 345
248 256
248 342
248 352
249 300
249 335
249 353
250 259
250 341
250 351
251 258
251 344
251 356
252 301
252 338
252 354
253 261
253 343
253 355
254 260
254 340
255 298
255 339
255 349
256 328
257 329
258 330
259 331
260 332
261 333
262 297
262 305
263 286
263 288
263 335
264 287
264 289
264 334
265 290
265 304
265 346
266 289
266 307
266 346
266 347
267 290
267 292
267 337
268 291
268 293
268 336
269 294
269 306
269 347
269 348
270 293
270 309
270 348
271 294
271 296
271 339
272 295
272 297
272 338
273 286
273 308
274 285
274 304
275 276
275 340
276 341
277 278
277 305
278 306
279 280
279 342
280 343
281 282
281 307
282 308
283 284
283 344
284 345
285 309
286 312
286 358
286 371
287 310
288 316
288 351
289 314
289 353
289 372
290 318
290 350
290 372
291 316
291 352
292 322
292 355
293 320
293 357
293 373
294 324
294 354
294 373
295 322
295 356
296 310
297 326
297 349
297 371
298 305
299 304
299 346
300 307
300 346
301 306
301 348
302 309
302 348
303 308
304 328
305 329
306 330
307 331
308 332
309 333
311 327
311 360
311 370
311 371
312 314
312 359
312 361
314 360
314 362
315 317
315 361
315 363
315 372
317 362
317 364
317 372
318 320
318 363
318 365
320 364
320 366
321 323
321 365
321 367
321 373
323 366
323 368
323 373
324 326
324 367
324 369
326 368
326 370
327 359
327 369
327 371
334 340
335 341
336 342
337 343
338 344
339 345
340 358
341 353
342 350
343 357
344 354
345 349
349 371
350 372
353 372
354 373
357 373
358 371
