0 148
0 149
0 150
0 151
0 152
0 153
0 154
0 155
0 156
0 157
0 158
0 159
0 160
0 161
0 162
0 163
0 164
0 165
0 166
0 167
0 168
0 169
0 170
0 171
1 120
1 126
1 131
1 138
1 142
1 155
1 167
1 174
1 182
1 188
1 198
1 199
1 201
1 217
2 132
2 139
2 143
2 169
2 175
2 183
2 187
2 189
2 200
2 202
3 131
3 140
3 144
3 158
3 172
3 176
3 188
3 190
3 202
3 204
4 121
4 122
4 127
4 132
4 141
4 145
4 147
4 148
4 160
4 173
4 177
4 189
4 191
4 203
4 205
5 123
5 124
5 127
5 133
5 134
5 142
5 151
5 163
5 174
5 178
5 190
5 192
5 205
5 207
6 128
6 135
6 143
6 153
6 175
6 179
6 191
6 193
6 206
6 208
7 133
7 136
7 144
7 166
7 176
7 180
7 192
7 194
7 208
7 210
8 115
8 116
8 125
8 128
8 137
8 145
8 156
8 168
8 177
8 181
8 193
8 195
8 209
8 211
9 117
9 118
9 125
9 129
9 134
9 138
9 146
9 159
9 171
9 178
9 182
9 194
9 196
9 211
9 213
10 130
10 135
10 139
10 161
10 179
10 183
10 195
10 197
10 212
10 214
11 129
11 136
11 140
11 150
11 172
11 180
11 196
11 198
11 214
11 216
12 119
12 126
12 130
12 137
12 141
12 152
12 164
12 173
12 181
12 187
12 197
12 199
12 215
12 218
13 95
13 96
13 107
13 108
13 126
13 127
13 184
13 185
13 187
13 190
13 217
14 88
14 99
14 100
14 111
14 125
14 127
14 185
14 186
14 191
14 194
15 91
15 92
15 103
15 104
15 125
15 126
15 184
15 186
15 195
15 198
15 218
16 84
16 97
16 113
16 156
16 170
16 199
16 204
16 220
16 224
16 225
17 83
17 94
17 114
17 123
17 146
17 157
17 171
17 200
17 205
17 219
17 226
17 227
18 76
18 89
18 114
18 122
18 154
18 164
18 205
18 210
18 230
18 231
19 87
19 98
19 112
19 117
19 155
19 165
19 206
19 211
19 232
19 233
20 80
20 93
20 112
20 116
20 147
20 148
20 162
20 211
20 216
20 222
20 236
20 237
21 79
21 90
21 113
21 149
21 163
21 199
21 212
21 221
21 238
21 239
22 81
22 84
22 105
22 108
22 175
22 182
22 225
23 83
23 86
23 107
23 110
23 172
23 177
23 226
24 76
24 85
24 100
24 109
24 174
24 179
24 231
25 78
25 87
25 102
25 111
25 176
25 181
25 232
26 77
26 80
26 101
26 104
26 178
26 183
26 237
27 79
27 82
27 103
27 106
27 173
27 180
27 238
28 61
28 62
28 80
28 84
28 121
28 137
28 143
28 189
28 197
28 222
28 224
28 257
29 63
29 64
29 73
29 81
29 85
29 123
29 138
29 144
29 190
29 198
29 223
29 247
29 249
30 64
30 65
30 74
30 82
30 86
30 139
30 145
30 187
30 191
30 228
30 248
30 250
31 66
31 67
31 83
31 87
31 120
31 134
31 140
31 188
31 192
31 227
31 258
32 67
32 68
32 76
32 84
32 115
32 135
32 141
32 189
32 193
32 220
32 230
32 259
33 52
33 69
33 75
33 77
33 85
33 117
33 136
33 142
33 190
33 194
33 229
33 251
34 52
34 53
34 70
34 78
34 86
34 122
34 137
34 143
34 191
34 195
34 234
34 252
35 54
35 55
35 79
35 87
35 124
35 138
35 144
35 192
35 196
35 221
35 233
35 260
36 55
36 56
36 76
36 80
36 119
36 139
36 145
36 193
36 197
36 236
36 261
37 57
37 58
37 71
37 77
37 81
37 134
37 140
37 194
37 198
37 235
37 253
37 255
38 58
38 59
38 72
38 78
38 82
38 116
38 135
38 141
38 187
38 195
38 240
38 254
38 256
39 60
39 61
39 79
39 83
39 118
39 136
39 142
39 188
39 196
39 219
39 239
39 262
40 60
40 63
40 92
40 97
40 154
40 167
40 174
40 225
40 247
40 262
40 263
41 61
41 64
41 72
41 93
41 155
41 169
41 175
41 182
41 227
41 240
41 241
41 242
41 248
41 264
42 64
42 67
42 75
42 98
42 148
42 158
42 172
42 177
42 224
42 229
42 242
42 243
42 249
42 265
43 65
43 68
43 94
43 99
43 149
43 160
43 173
43 226
43 250
43 259
43 266
44 66
44 69
44 89
44 96
44 151
44 162
44 178
44 231
44 251
44 258
44 267
45 52
45 67
45 74
45 97
45 153
45 163
45 174
45 179
45 228
45 233
45 243
45 244
45 268
46 52
46 55
46 71
46 90
46 156
46 166
46 176
46 181
46 230
46 235
46 244
46 245
46 269
47 53
47 56
47 91
47 98
47 157
47 168
47 177
47 232
47 252
47 261
47 270
48 54
48 57
48 88
48 93
48 159
48 170
48 182
48 237
48 253
48 260
48 271
49 55
49 58
49 70
49 89
49 161
49 171
49 178
49 183
49 234
49 239
49 245
49 246
49 254
49 272
50 58
50 61
50 73
50 94
50 150
50 164
50 173
50 180
50 223
50 236
50 241
50 246
50 255
50 273
51 59
51 62
51 90
51 95
51 152
51 165
51 181
51 238
51 256
51 257
51 274
52 58
52 64
52 90
52 97
52 136
52 143
52 153
52 166
52 202
52 214
52 224
52 239
52 247
52 256
52 264
52 273
52 275
52 286
53 59
53 65
53 91
53 122
53 137
53 154
53 168
53 203
53 215
53 226
53 248
53 274
53 287
54 60
54 66
54 93
54 144
54 170
54 204
54 216
54 263
54 288
55 61
55 67
55 119
55 124
55 138
55 145
55 156
55 171
55 199
55 205
55 223
55 228
55 264
55 265
55 276
55 277
55 288
55 289
56 62
56 68
56 98
56 139
56 157
56 200
56 206
56 266
56 289
57 63
57 69
57 88
57 134
57 149
57 159
57 201
57 207
57 225
57 249
57 267
57 290
58 64
58 89
58 94
58 135
58 140
58 150
58 161
58 202
58 208
58 227
58 230
58 250
58 251
58 265
58 268
58 278
58 279
59 65
59 95
59 116
59 141
59 152
59 162
59 203
59 209
59 232
59 266
59 291
60 66
60 97
60 136
60 154
60 204
60 210
60 267
60 292
61 67
61 118
61 121
61 137
61 142
61 155
61 164
61 205
61 211
61 229
61 234
61 268
61 269
61 280
61 281
61 292
61 293
62 68
62 90
62 143
62 165
62 206
62 212
62 270
62 293
63 69
63 92
63 123
63 138
63 157
63 167
63 207
63 213
63 231
63 271
63 294
64 93
64 98
64 139
64 144
64 158
64 169
64 208
64 214
64 233
64 236
64 252
64 253
64 269
64 272
64 282
64 283
65 99
65 145
65 160
65 170
65 209
65 215
65 238
65 254
65 270
65 295
66 89
66 140
66 162
66 210
66 216
66 271
66 296
67 115
67 120
67 134
67 141
67 148
67 163
67 199
67 211
67 235
67 240
67 272
67 273
67 284
67 285
67 296
67 297
68 94
68 135
68 149
68 200
68 212
68 274
68 297
69 96
69 117
69 142
69 151
69 165
69 201
69 213
69 237
69 255
69 263
69 298
70 86
70 104
70 130
70 183
70 218
70 250
70 275
70 287
71 81
71 111
71 133
71 176
71 247
71 278
71 290
72 78
72 108
72 132
72 175
72 252
72 279
72 291
73 85
73 103
73 129
73 180
73 251
73 282
73 294
74 82
74 100
74 128
74 179
74 256
74 283
74 295
75 77
75 107
75 131
75 172
75 217
75 253
75 286
75 298
76 109
76 122
76 189
76 197
76 273
76 276
76 305
77 104
77 124
77 190
77 198
77 263
77 265
77 275
77 299
78 111
78 119
78 187
78 191
78 264
78 266
78 278
78 300
79 106
79 188
79 192
79 268
79 277
79 306
80 101
80 116
80 147
80 189
80 193
80 265
80 280
80 307
81 108
81 118
81 190
81 194
81 267
81 269
81 279
81 301
82 103
82 121
82 191
82 195
82 268
82 270
82 282
82 302
83 110
83 123
83 146
83 192
83 196
83 272
83 281
83 308
84 105
84 193
84 197
84 269
84 284
84 309
85 100
85 120
85 194
85 198
85 271
85 273
85 283
85 303
86 107
86 115
86 187
86 195
86 272
86 274
86 286
86 304
87 102
87 117
87 188
87 196
87 264
87 285
87 310
88 153
88 167
88 225
88 298
88 299
88 310
88 311
89 114
89 154
89 169
89 227
89 288
89 312
90 113
90 149
90 158
90 224
90 289
90 316
91 150
91 160
91 226
91 291
91 300
91 307
91 317
92 151
92 161
92 231
92 290
92 301
92 306
92 317
93 112
93 153
93 162
93 233
93 292
93 318
94 114
94 157
94 166
94 230
94 293
94 322
95 158
95 168
95 232
95 295
95 302
95 309
95 323
96 159
96 169
96 237
96 294
96 303
96 308
96 323
97 113
97 161
97 170
97 239
97 296
97 324
98 112
98 150
98 165
98 236
98 297
98 328
99 152
99 166
99 238
99 287
99 304
99 305
99 311
100 103
100 127
100 174
100 203
100 305
101 110
101 183
101 216
102 105
102 176
102 206
103 126
103 173
103 201
103 306
104 107
104 125
104 178
104 209
104 307
105 175
105 204
106 109
106 180
106 212
107 127
107 177
107 207
107 308
108 111
108 126
108 182
108 215
108 309
109 179
109 210
110 172
110 200
111 125
111 181
111 213
111 310
112 313
112 315
113 319
113 321
114 325
114 327
115 137
115 220
115 274
115 305
115 329
115 335
116 145
116 257
116 265
116 329
117 138
117 217
117 258
117 264
117 330
118 134
118 146
118 219
118 267
118 306
118 330
118 336
119 141
119 266
119 307
119 331
119 337
120 138
120 271
120 308
120 332
120 338
121 145
121 147
121 222
121 270
121 309
121 333
121 339
122 141
122 218
122 261
122 273
122 333
123 134
123 262
123 272
123 334
124 142
124 221
124 263
124 310
124 334
124 340
125 184
125 185
125 287
125 290
125 299
125 300
126 185
126 186
126 291
126 294
126 301
126 302
127 184
127 186
127 295
127 298
127 303
127 304
128 153
128 168
128 248
128 256
128 335
129 150
129 159
129 249
129 251
129 336
130 152
130 161
130 250
130 337
131 158
131 167
131 253
131 338
132 160
132 169
132 252
132 254
132 339
133 151
133 166
133 247
133 255
133 340
134 174
134 182
134 227
134 249
134 310
135 175
135 183
135 240
135 250
135 335
136 172
136 176
136 229
136 247
136 336
136 341
137 173
137 177
137 224
137 248
137 307
138 174
138 178
138 233
138 306
139 175
139 179
139 228
139 252
139 337
139 342
140 176
140 180
140 235
140 251
140 338
140 343
141 177
141 181
141 230
141 309
142 178
142 182
142 239
142 255
142 308
143 179
143 183
143 234
143 256
143 339
143 344
144 172
144 180
144 223
144 253
144 340
145 173
145 181
145 236
145 254
145 305
146 258
146 281
147 261
147 280
148 153
148 169
148 189
148 222
148 242
148 273
148 288
148 298
148 313
148 328
148 329
148 357
149 154
149 170
149 220
149 274
149 289
149 311
149 314
149 345
150 155
150 171
150 198
150 241
150 265
150 312
150 315
150 341
150 345
150 346
150 358
151 184
151 190
151 263
151 290
151 330
151 347
152 185
152 187
152 266
152 287
152 329
152 346
153 156
153 191
153 243
153 264
153 313
153 316
153 347
153 348
153 359
154 157
154 219
154 267
154 288
154 314
154 317
154 341
154 348
155 158
155 188
155 242
155 268
155 289
155 291
155 315
155 318
155 330
155 360
156 161
156 193
156 220
156 244
156 265
156 290
156 292
156 316
156 319
156 331
156 361
157 162
157 266
157 293
157 317
157 320
157 342
157 349
158 163
158 190
158 243
158 269
158 318
158 321
158 343
158 349
158 350
158 362
159 185
159 194
159 267
159 294
159 332
159 351
160 186
160 191
160 270
160 291
160 331
160 350
161 164
161 195
161 245
161 268
161 319
161 322
161 342
161 351
161 352
161 363
162 165
162 271
162 292
162 320
162 323
162 343
162 352
163 166
163 192
163 221
163 244
163 272
163 293
163 295
163 321
163 324
163 332
163 364
164 169
164 197
164 246
164 269
164 294
164 296
164 322
164 325
164 333
164 365
165 170
165 222
165 270
165 297
165 323
165 326
165 344
165 353
166 171
166 194
166 245
166 273
166 324
166 327
166 353
166 354
166 366
167 186
167 198
167 271
167 298
167 334
167 355
168 184
168 195
168 274
168 295
168 333
168 354
169 187
169 241
169 272
169 325
169 328
169 344
169 355
169 356
169 367
170 221
170 263
170 296
170 311
170 326
170 356
171 196
171 219
171 246
171 264
171 287
171 297
171 312
171 327
171 334
171 368
172 249
172 286
172 345
172 369
173 218
173 250
173 277
173 305
173 346
174 247
174 276
174 306
174 347
175 248
175 279
175 348
176 278
176 349
177 252
177 281
177 307
177 350
178 251
178 280
178 308
178 351
179 283
179 352
180 255
180 282
180 353
181 256
181 285
181 309
181 354
182 217
182 253
182 284
182 310
182 355
183 254
183 275
183 356
183 370
187 202
187 215
187 248
187 256
187 304
187 329
187 370
188 199
188 204
188 330
189 200
189 205
189 329
190 202
190 207
190 249
190 251
190 301
190 330
191 203
191 208
191 250
191 300
191 331
192 205
192 210
192 332
193 206
193 211
193 331
194 208
194 213
194 253
194 303
194 332
195 209
195 214
195 252
195 254
195 302
195 333
196 211
196 216
196 334
197 199
197 212
197 333
198 201
198 214
198 247
198 255
198 299
198 334
198 369
199 224
199 239
199 276
199 285
200 226
200 328
200 345
201 315
201 347
202 223
202 228
202 275
202 278
202 345
202 348
203 313
203 346
204 225
204 318
204 348
205 227
205 230
205 277
205 280
206 232
206 316
206 349
207 321
207 351
208 229
208 234
208 279
208 282
208 349
208 352
209 319
209 350
210 231
210 324
210 352
211 233
211 236
211 281
211 284
212 238
212 322
212 353
213 327
213 355
214 235
214 240
214 283
214 286
214 353
214 356
215 325
215 354
216 237
216 312
216 356
217 242
217 298
218 246
218 287
219 262
219 277
219 341
220 259
220 276
221 260
221 285
222 257
222 284
222 344
223 273
223 288
223 340
223 345
223 368
224 257
224 265
224 359
225 263
225 290
225 348
226 266
226 287
226 345
227 258
227 264
227 358
228 268
228 289
228 337
228 348
228 361
229 265
229 292
229 336
229 349
229 360
230 259
230 269
230 363
231 267
231 294
231 352
232 270
232 291
232 349
233 260
233 268
233 362
234 272
234 293
234 339
234 352
234 365
235 269
235 296
235 338
235 353
235 364
236 261
236 273
236 367
237 271
237 298
237 356
238 274
238 295
238 353
239 262
239 272
239 366
240 264
240 297
240 335
240 356
240 357
247 262
247 341
247 347
247 369
248 300
248 335
248 348
249 299
249 336
249 345
250 259
250 346
251 258
251 343
251 351
252 261
252 342
252 350
253 260
253 355
254 304
254 339
254 356
255 303
255 340
255 353
256 257
256 344
256 354
256 370
257 329
258 330
259 331
260 332
261 333
262 334
263 288
263 298
263 340
264 289
264 310
265 288
265 307
266 289
266 291
266 337
267 290
267 292
267 336
268 293
268 306
269 292
269 309
270 293
270 295
270 339
271 294
271 296
271 338
272 297
272 308
273 296
273 305
274 287
274 297
274 335
275 286
275 370
276 277
276 305
277 306
278 279
278 341
279 342
280 281
280 307
281 308
282 283
282 343
283 344
284 285
284 309
285 310
286 369
287 314
287 346
288 312
288 348
288 371
289 316
289 345
289 371
290 314
290 347
291 320
291 350
292 318
292 352
292 372
293 322
293 349
293 372
294 320
294 351
295 326
295 354
296 324
296 356
296 373
297 328
297 353
297 373
298 326
298 355
299 310
300 307
301 306
302 309
303 308
304 305
305 329
306 330
307 331
308 332
309 333
310 334
312 328
312 358
312 368
313 315
313 357
313 359
313 371
315 358
315 360
315 371
316 318
316 359
316 361
318 360
318 362
319 321
319 361
319 363
319 372
321 362
321 364
321 372
322 324
322 363
322 365
324 364
324 366
325 327
325 365
325 367
325 373
327 366
327 368
327 373
328 357
328 367
335 370
336 341
337 342
338 343
339 344
340 369
341 345
342 352
343 349
344 356
345 369
345 371
348 371
349 372
352 372
353 373
356 370
356 373
