0 153
0 154
0 155
0 156
0 157
0 158
0 159
0 160
0 161
0 162
0 163
0 164
0 165
0 166
0 167
0 168
0 169
0 170
0 171
0 172
0 173
0 174
0 175
0 176
1 122
1 123
1 129
1 134
1 141
1 145
1 160
1 172
1 179
1 187
1 190
1 200
1 201
1 203
1 219
2 135
2 142
2 146
2 174
2 180
2 188
2 189
2 191
2 202
2 204
3 134
3 143
3 147
3 163
3 177
3 181
3 190
3 192
3 204
3 206
4 124
4 125
4 130
4 135
4 144
4 148
4 152
4 153
4 165
4 178
4 182
4 191
4 193
4 205
4 207
5 126
5 127
5 130
5 136
5 137
5 145
5 149
5 156
5 168
5 179
5 183
5 192
5 194
5 207
5 209
6 131
6 138
6 146
6 158
6 180
6 184
6 193
6 195
6 208
6 210
7 136
7 139
7 147
7 171
7 181
7 185
7 194
7 196
7 210
7 212
8 118
8 119
8 128
8 131
8 140
8 148
8 161
8 173
8 182
8 186
8 195
8 197
8 211
8 213
8 220
9 120
9 128
9 132
9 137
9 141
9 151
9 164
9 176
9 183
9 187
9 196
9 198
9 213
9 215
9 221
10 133
10 138
10 142
10 166
10 184
10 188
10 197
10 199
10 214
10 216
11 132
11 139
11 143
11 155
11 177
11 185
11 198
11 200
11 216
11 218
12 121
12 129
12 133
12 140
12 144
12 150
12 157
12 169
12 178
12 186
12 189
12 199
12 201
12 217
12 222
13 99
13 100
13 113
13 114
13 129
13 130
13 189
13 192
13 219
14 88
14 105
14 106
14 117
14 128
14 130
14 193
14 196
14 220
15 93
15 94
15 109
15 110
15 128
15 129
15 197
15 200
15 221
15 222
16 84
16 97
16 101
16 161
16 175
16 201
16 206
16 226
16 227
17 83
17 98
17 102
17 126
17 151
17 162
17 176
17 202
17 207
17 228
17 229
18 76
18 89
18 103
18 125
18 150
18 159
18 169
18 207
18 212
18 232
18 233
19 87
19 90
19 104
19 160
19 170
19 208
19 213
19 234
19 235
20 78
20 93
20 121
20 165
20 176
20 217
21 80
21 91
21 95
21 119
21 152
21 153
21 167
21 213
21 218
21 224
21 238
21 239
22 79
22 92
22 96
22 122
22 149
22 154
22 168
22 201
22 214
22 223
22 240
22 241
23 81
23 94
23 120
23 156
23 169
23 215
24 81
24 84
24 111
24 114
24 180
24 187
24 227
25 83
25 86
25 113
25 116
25 177
25 182
25 228
26 76
26 85
26 106
26 115
26 179
26 184
26 233
27 78
27 87
27 108
27 117
27 181
27 186
27 234
28 61
28 62
28 80
28 84
28 124
28 140
28 146
28 191
28 199
28 224
28 226
28 261
29 63
29 64
29 73
29 81
29 85
29 126
29 141
29 147
29 192
29 200
29 225
29 249
29 251
30 64
30 65
30 74
30 82
30 86
30 142
30 148
30 189
30 193
30 230
30 250
30 252
31 66
31 67
31 83
31 87
31 123
31 137
31 143
31 190
31 194
31 229
31 262
32 67
32 68
32 76
32 84
32 118
32 138
32 144
32 191
32 195
32 232
32 263
33 52
33 69
33 75
33 77
33 85
33 139
33 145
33 192
33 196
33 231
33 253
33 255
34 52
34 53
34 70
34 78
34 86
34 125
34 140
34 146
34 193
34 197
34 236
34 254
34 256
35 54
35 55
35 79
35 87
35 127
35 141
35 147
35 194
35 198
35 223
35 235
35 264
36 55
36 56
36 76
36 80
36 121
36 142
36 148
36 195
36 199
36 238
36 265
37 57
37 58
37 71
37 77
37 81
37 122
37 137
37 143
37 196
37 200
37 237
37 257
37 259
38 58
38 59
38 72
38 78
38 82
38 119
38 138
38 144
38 189
38 197
38 242
38 258
38 260
39 60
39 61
39 79
39 83
39 120
39 139
39 145
39 190
39 198
39 241
39 266
40 60
40 63
40 94
40 101
40 159
40 172
40 179
40 227
40 249
40 266
40 267
41 61
41 64
41 72
41 95
41 102
41 160
41 174
41 180
41 187
41 229
41 242
41 243
41 244
41 250
41 268
42 64
42 67
42 75
42 97
42 104
42 153
42 163
42 177
42 182
42 226
42 231
42 244
42 245
42 251
42 269
43 65
43 68
43 98
43 105
43 154
43 165
43 178
43 228
43 252
43 263
43 270
44 66
44 69
44 89
44 100
44 156
44 167
44 183
44 233
44 253
44 262
44 271
45 52
45 67
45 74
45 90
45 101
45 158
45 168
45 179
45 184
45 230
45 235
45 245
45 246
45 254
45 272
46 52
46 55
46 71
46 92
46 103
46 161
46 171
46 181
46 186
46 232
46 237
46 246
46 247
46 255
46 273
47 53
47 56
47 93
47 104
47 162
47 173
47 182
47 234
47 256
47 265
47 274
48 54
48 57
48 88
48 95
48 164
48 175
48 187
48 239
48 257
48 264
48 275
49 55
49 58
49 70
49 89
49 96
49 166
49 176
49 183
49 188
49 236
49 241
49 247
49 248
49 258
49 276
50 58
50 61
50 73
50 91
50 98
50 155
50 169
50 178
50 185
50 225
50 238
50 243
50 248
50 259
50 277
51 59
51 62
51 92
51 99
51 157
51 170
51 186
51 240
51 260
51 261
51 278
52 58
52 64
52 92
52 101
52 139
52 146
52 158
52 171
52 204
52 216
52 226
52 241
52 249
52 260
52 268
52 277
52 279
52 290
52 291
52 308
53 59
53 65
53 93
53 102
53 125
53 140
53 159
53 173
53 205
53 217
53 228
53 250
53 278
53 291
53 292
54 60
54 66
54 95
54 147
54 175
54 206
54 218
54 267
54 293
55 61
55 67
55 96
55 103
55 121
55 127
55 141
55 148
55 161
55 176
55 201
55 207
55 225
55 230
55 268
55 269
55 280
55 281
55 293
55 294
56 62
56 68
56 104
56 142
56 162
56 202
56 208
56 270
56 294
57 63
57 69
57 88
57 97
57 122
57 137
57 154
57 164
57 203
57 209
57 227
57 251
57 271
57 295
57 296
58 64
58 89
58 98
58 138
58 143
58 155
58 166
58 204
58 210
58 229
58 232
58 252
58 253
58 269
58 272
58 282
58 283
58 296
58 297
59 65
59 90
59 99
59 119
59 144
59 157
59 167
59 205
59 211
59 234
59 254
59 270
59 297
59 298
60 66
60 101
60 139
60 159
60 206
60 212
60 271
60 299
61 67
61 91
61 102
61 120
61 124
61 140
61 145
61 160
61 169
61 207
61 213
61 231
61 236
61 272
61 273
61 284
61 285
61 299
61 300
62 68
62 92
62 146
62 170
62 208
62 214
62 274
62 300
63 69
63 94
63 103
63 126
63 141
63 162
63 172
63 209
63 215
63 233
63 255
63 275
63 301
63 302
64 95
64 104
64 142
64 147
64 163
64 174
64 210
64 216
64 235
64 238
64 256
64 257
64 273
64 276
64 286
64 287
64 302
64 303
65 96
65 105
65 148
65 165
65 175
65 211
65 217
65 240
65 258
65 274
65 303
65 304
66 89
66 143
66 167
66 212
66 218
66 275
66 305
67 90
67 97
67 118
67 123
67 137
67 144
67 153
67 168
67 201
67 213
67 237
67 242
67 276
67 277
67 288
67 289
67 305
67 306
68 98
68 138
68 154
68 202
68 214
68 278
68 306
69 91
69 100
69 145
69 156
69 170
69 203
69 215
69 239
69 259
69 267
69 307
69 308
70 86
70 110
70 133
70 188
70 222
70 252
70 279
70 292
71 81
71 117
71 136
71 181
71 249
71 282
71 295
72 78
72 114
72 135
72 180
72 256
72 283
72 298
73 85
73 109
73 132
73 185
73 221
73 253
73 286
73 301
74 82
74 106
74 131
74 184
74 220
74 260
74 287
74 304
75 77
75 113
75 134
75 177
75 219
75 257
75 290
75 307
76 115
76 125
76 150
76 191
76 199
76 277
76 280
76 313
77 110
77 127
77 192
77 200
77 267
77 269
77 279
77 309
78 117
78 121
78 189
78 193
78 268
78 270
78 282
79 112
79 122
79 149
79 190
79 194
79 272
79 281
79 314
80 107
80 119
80 152
80 191
80 195
80 269
80 284
80 315
81 114
81 120
81 192
81 196
81 271
81 273
81 283
82 109
82 124
82 193
82 197
82 272
82 274
82 286
82 310
83 116
83 126
83 151
83 194
83 198
83 276
83 285
83 316
84 111
84 195
84 199
84 273
84 288
84 317
85 106
85 123
85 196
85 200
85 275
85 277
85 287
85 311
86 113
86 118
86 189
86 197
86 276
86 278
86 290
86 312
87 108
87 190
87 198
87 268
87 289
87 318
88 158
88 172
88 227
88 307
88 309
88 318
88 319
89 159
89 174
89 229
89 293
89 308
89 320
90 160
90 175
90 242
90 291
90 294
90 321
91 153
91 162
91 231
91 293
91 296
91 323
92 154
92 163
92 226
92 294
92 297
92 324
93 155
93 165
93 228
93 298
93 315
93 325
94 156
94 166
94 233
94 295
94 314
94 325
95 158
95 167
95 235
95 296
95 299
95 326
96 159
96 168
96 230
96 297
96 300
96 327
97 161
97 170
97 237
97 299
97 302
97 329
98 162
98 171
98 232
98 300
98 303
98 330
99 163
99 173
99 234
99 304
99 310
99 317
99 331
100 164
100 174
100 239
100 301
100 311
100 316
100 331
101 166
101 175
101 241
101 302
101 305
101 332
102 167
102 176
102 236
102 303
102 306
102 333
103 154
103 169
103 225
103 305
103 308
103 335
104 155
104 170
104 238
104 291
104 306
104 336
105 157
105 171
105 240
105 292
105 312
105 313
105 319
106 109
106 130
106 179
106 205
106 313
107 116
107 188
107 218
108 111
108 181
108 208
109 129
109 178
109 203
109 314
110 113
110 128
110 183
110 211
110 315
111 180
111 206
112 115
112 185
112 214
113 130
113 182
113 209
113 316
114 117
114 129
114 187
114 217
114 317
115 184
115 212
116 177
116 202
117 128
117 186
117 215
117 318
118 140
118 278
118 313
118 337
118 343
119 148
119 261
119 269
119 337
120 137
120 151
120 271
120 314
120 338
120 344
121 144
121 150
121 270
121 315
121 339
121 345
122 145
122 264
122 272
122 340
123 141
123 275
123 316
123 340
123 346
124 148
124 152
124 224
124 274
124 317
124 341
124 347
125 144
125 222
125 265
125 277
125 341
126 137
126 221
126 266
126 276
126 342
127 145
127 149
127 223
127 267
127 318
127 342
127 348
128 292
128 295
128 309
129 298
129 301
129 310
130 304
130 307
130 311
130 312
131 158
131 173
131 250
131 260
131 343
132 155
132 164
132 251
132 253
132 344
133 157
133 166
133 252
133 254
133 345
134 163
134 172
134 255
134 257
134 346
135 165
135 174
135 256
135 258
135 347
136 156
136 171
136 249
136 259
136 348
137 179
137 187
137 229
137 251
137 318
138 180
138 188
138 242
138 252
138 343
139 177
139 181
139 231
139 249
139 344
139 349
140 178
140 182
140 226
140 250
140 315
141 179
141 183
141 235
141 255
141 314
142 180
142 184
142 230
142 256
142 345
142 350
143 181
143 185
143 237
143 253
143 346
144 182
144 186
144 232
144 254
144 317
145 183
145 187
145 241
145 259
145 316
146 184
146 188
146 236
146 260
146 347
146 351
147 177
147 185
147 225
147 257
147 348
147 352
148 178
148 186
148 238
148 258
148 313
149 266
149 281
150 263
150 280
151 262
151 285
152 265
152 284
153 158
153 174
153 191
153 224
153 244
153 277
153 293
153 307
153 321
153 336
153 337
153 361
154 159
154 175
154 278
154 294
154 308
154 319
154 322
154 353
155 160
155 176
155 200
155 243
155 269
155 291
155 320
155 323
155 349
155 353
155 362
156 192
156 267
156 295
156 338
156 354
157 189
157 270
157 292
157 337
158 161
158 193
158 245
158 268
158 296
158 321
158 324
158 354
158 355
158 363
159 162
159 271
159 293
159 297
159 322
159 325
159 349
159 355
160 163
160 190
160 244
160 272
160 294
160 298
160 323
160 326
160 338
160 364
161 166
161 195
161 246
161 269
161 295
161 299
161 324
161 327
161 339
161 365
162 167
162 270
162 296
162 300
162 325
162 328
162 350
162 356
163 168
163 192
163 245
163 273
163 297
163 326
163 329
163 356
163 357
163 366
164 196
164 271
164 301
164 340
165 193
165 274
165 298
165 339
165 357
166 169
166 197
166 247
166 272
166 302
166 327
166 330
166 350
166 358
166 367
167 170
167 275
167 299
167 303
167 328
167 331
167 358
168 171
168 194
168 223
168 246
168 276
168 300
168 304
168 329
168 332
168 340
168 368
169 174
169 199
169 248
169 273
169 301
169 305
169 330
169 333
169 341
169 369
170 175
170 224
170 274
170 302
170 306
170 331
170 334
170 351
170 359
171 176
171 196
171 247
171 277
171 303
171 332
171 335
171 352
171 359
171 370
172 200
172 275
172 307
172 342
173 197
173 278
173 304
173 341
174 189
174 243
174 276
174 308
174 333
174 336
174 351
174 360
174 371
175 223
175 267
175 291
175 305
175 319
175 334
175 352
175 360
176 198
176 248
176 268
176 292
176 306
176 320
176 335
176 342
176 372
177 251
177 290
177 353
178 222
178 252
178 281
178 313
179 249
179 280
179 314
179 354
180 250
180 283
180 355
181 255
181 282
181 356
182 256
182 285
182 315
182 357
183 221
183 253
183 284
183 316
184 254
184 287
184 358
185 259
185 286
185 359
185 373
186 220
186 260
186 289
186 317
187 219
187 257
187 288
187 318
188 258
188 279
188 360
188 374
189 204
189 217
189 250
189 260
189 312
189 337
189 374
190 201
190 206
190 338
191 202
191 207
191 337
192 204
192 209
192 251
192 253
192 338
193 205
193 210
193 252
193 254
193 339
194 207
194 212
194 340
195 208
195 213
195 339
196 210
196 215
196 255
196 257
196 311
196 340
196 373
197 211
197 216
197 256
197 258
197 310
197 341
198 213
198 218
198 342
199 201
199 214
199 341
200 203
200 216
200 249
200 259
200 309
200 342
201 226
201 241
201 280
201 289
202 228
202 336
202 353
203 323
203 354
204 225
204 230
204 279
204 282
204 353
204 355
205 321
206 227
206 326
206 355
207 229
207 232
207 281
207 284
208 234
208 324
208 356
209 329
210 231
210 236
210 283
210 286
210 356
210 358
211 327
211 357
212 233
212 332
212 358
213 235
213 238
213 285
213 288
214 240
214 330
214 359
215 335
216 237
216 242
216 287
216 290
216 359
216 360
217 333
218 239
218 320
218 360
219 244
219 307
220 246
220 304
221 248
221 301
222 248
222 292
223 264
223 289
223 352
224 261
224 288
224 351
225 277
225 293
225 348
225 353
225 372
226 261
226 269
226 291
226 363
227 267
227 295
227 355
228 270
228 292
228 353
229 262
229 268
229 296
229 362
230 272
230 294
230 345
230 355
230 365
231 269
231 299
231 344
231 356
231 364
232 263
232 273
232 297
232 367
233 271
233 301
233 358
234 274
234 298
234 356
235 264
235 272
235 302
235 366
236 276
236 300
236 347
236 358
236 369
237 273
237 305
237 346
237 359
237 368
238 265
238 277
238 303
238 371
239 275
239 307
239 360
240 278
240 304
240 359
241 266
241 276
241 308
241 370
242 268
242 306
242 343
242 360
242 361
249 266
249 349
249 354
250 343
250 355
251 309
251 344
251 353
252 263
253 262
254 310
254 345
254 358
255 346
255 356
256 265
256 350
256 357
257 264
257 352
257 373
258 312
258 347
258 360
259 311
259 348
259 359
260 261
260 351
260 374
261 337
262 338
263 339
264 340
265 341
266 342
267 293
267 307
267 348
268 294
268 308
268 318
269 293
269 297
269 315
270 294
270 298
270 345
271 295
271 299
271 344
272 296
272 300
272 314
273 299
273 303
273 317
274 300
274 304
274 347
275 301
275 305
275 346
276 302
276 306
276 316
277 291
277 305
277 313
278 292
278 306
278 343
279 290
279 374
280 281
280 313
281 314
282 283
282 349
283 350
284 285
284 315
285 316
286 287
286 373
287 351
288 289
288 317
289 318
290 352
291 321
291 353
292 322
293 320
293 355
294 324
294 353
295 322
295 354
296 323
296 355
297 327
297 356
298 328
298 357
299 326
299 358
300 330
300 356
301 328
302 329
302 358
303 333
303 359
304 334
305 332
305 360
306 336
306 359
307 334
308 335
308 360
309 318
310 317
311 316
312 313
313 337
314 338
315 339
316 340
317 341
318 342
320 336
320 362
320 372
321 323
321 361
321 363
323 362
323 364
324 326
324 363
324 365
326 364
326 366
327 329
327 365
327 367
329 366
329 368
330 332
330 367
330 369
332 368
332 370
333 335
333 369
333 371
335 370
335 372
336 361
336 371
343 374
344 349
345 350
346 373
347 351
348 352
349 353
350 358
351 360
352 359
359 373
360 374
