0 159
0 160
0 161
0 162
0 163
0 164
0 165
0 166
0 167
0 168
0 169
0 170
0 171
0 172
0 173
0 174
0 175
0 176
1 123
1 128
1 139
1 147
1 151
1 173
1 194
1 200
1 212
1 222
2 129
2 136
2 148
2 152
2 158
2 165
2 190
2 195
2 211
2 213
3 129
3 141
3 149
3 153
3 176
3 196
3 212
3 214
4 130
4 138
4 150
4 154
4 168
4 193
4 213
4 215
5 130
5 131
5 143
5 151
5 157
5 161
5 189
5 194
5 214
5 216
6 124
6 125
6 140
6 144
6 152
6 171
6 195
6 197
6 215
6 217
7 121
7 125
7 133
7 145
7 153
7 164
7 196
7 198
7 216
7 218
8 126
8 142
8 146
8 154
8 156
8 174
8 192
8 199
8 217
8 219
9 126
9 135
9 143
9 147
9 167
9 200
9 218
9 220
10 127
10 132
10 144
10 148
10 159
10 197
10 219
10 221
11 127
11 137
11 145
11 149
11 155
11 170
11 191
11 198
11 220
11 222
12 122
12 128
12 134
12 146
12 150
12 162
12 193
12 199
12 211
12 221
13 108
13 109
13 127
13 129
13 134
13 139
13 179
13 186
13 201
13 204
13 212
13 221
13 231
13 242
13 243
13 250
14 101
14 110
14 111
14 128
14 130
14 136
14 141
14 181
14 188
14 202
14 211
14 214
14 232
14 233
14 244
15 102
15 112
15 113
15 125
15 129
15 131
15 138
15 178
15 183
15 201
15 213
15 216
15 234
15 235
15 245
16 103
16 114
16 126
16 130
16 133
16 140
16 180
16 185
16 202
16 203
16 215
16 218
16 236
16 237
16 246
16 247
17 99
17 104
17 105
17 125
17 127
17 135
17 142
17 182
17 187
17 204
17 217
17 220
17 238
17 239
17 248
18 100
18 106
18 107
18 126
18 128
18 132
18 137
18 177
18 184
18 203
18 219
18 222
18 240
18 241
18 249
19 88
19 109
19 112
19 148
19 153
19 223
19 231
19 234
19 252
19 253
20 89
20 111
20 114
20 143
20 150
20 226
20 233
20 236
20 254
20 255
21 84
21 103
21 106
21 147
21 154
21 227
21 237
21 240
21 258
21 259
22 85
22 105
22 108
22 144
22 149
22 230
22 239
22 242
22 260
22 261
23 80
23 87
23 88
23 96
23 108
23 111
23 117
23 119
23 135
23 140
23 158
23 180
23 187
23 195
23 200
23 206
23 210
23 230
23 250
23 251
23 252
23 263
23 264
24 81
24 95
24 98
24 110
24 113
24 118
24 120
24 137
24 142
24 177
24 182
24 205
24 207
24 224
24 225
24 244
24 245
24 253
24 254
24 265
24 266
24 275
25 82
25 89
25 90
25 97
25 103
25 112
25 115
25 119
25 132
25 139
25 157
25 179
25 184
25 194
25 197
25 206
25 208
25 227
25 247
25 255
25 256
25 267
25 268
26 77
26 83
26 84
26 92
26 105
26 114
26 116
26 120
26 134
26 141
26 156
26 181
26 186
26 196
26 199
26 207
26 209
26 226
26 246
26 257
26 258
26 269
26 270
27 78
27 91
27 94
27 104
27 107
27 115
27 117
27 131
27 136
27 183
27 188
27 208
27 210
27 228
27 229
27 248
27 249
27 259
27 260
27 271
27 272
27 276
28 79
28 85
28 86
28 93
28 106
28 109
28 116
28 118
28 133
28 138
28 155
28 178
28 185
28 193
28 198
28 205
28 209
28 223
28 243
28 261
28 262
28 273
28 274
29 71
29 94
29 96
29 146
29 152
29 213
29 221
29 229
29 264
29 277
29 289
30 72
30 97
30 147
30 153
30 214
30 222
30 263
30 278
30 290
31 73
31 98
31 122
31 148
31 154
31 211
31 215
31 223
31 266
31 279
31 290
32 74
32 95
32 121
32 143
32 149
32 212
32 216
32 226
32 265
32 280
32 291
33 75
33 96
33 144
33 150
33 213
33 217
33 268
33 281
33 291
34 76
34 91
34 97
34 145
34 151
34 214
34 218
34 228
34 267
34 282
34 292
35 65
35 92
35 98
35 146
35 152
35 215
35 219
35 225
35 270
35 283
35 292
36 66
36 93
36 147
36 153
36 216
36 220
36 269
36 284
36 293
37 67
37 94
37 124
37 148
37 154
37 217
37 221
37 227
37 272
37 285
37 293
38 68
38 91
38 123
38 143
38 149
38 218
38 222
38 230
38 271
38 286
38 294
39 69
39 92
39 144
39 150
39 211
39 219
39 274
39 287
39 294
40 70
40 93
40 95
40 145
40 151
40 212
40 220
40 224
40 273
40 288
40 289
41 70
41 72
41 119
41 163
41 173
41 194
41 241
41 278
41 295
42 71
42 73
42 102
42 117
42 165
42 175
42 234
42 277
42 296
43 72
43 74
43 120
43 166
43 176
43 196
43 231
43 280
43 297
44 73
44 75
44 118
44 160
44 168
44 193
44 236
44 279
44 298
45 74
45 76
45 101
45 115
45 161
45 169
45 233
45 282
45 299
46 65
46 75
46 119
46 163
46 171
46 195
46 238
46 281
46 300
47 66
47 76
47 116
47 164
47 172
47 198
47 235
47 284
47 301
48 65
48 67
48 100
48 120
48 166
48 174
48 240
48 283
48 302
49 66
49 68
49 117
49 167
49 175
49 200
49 237
49 286
49 303
50 67
50 69
50 115
50 159
50 169
50 197
50 242
50 285
50 304
51 68
51 70
51 99
51 118
51 160
51 170
51 239
51 288
51 305
52 69
52 71
52 116
52 162
52 172
52 199
52 232
52 287
52 306
53 60
53 70
53 81
53 112
53 127
53 187
53 206
53 242
53 253
53 289
53 296
53 308
54 59
54 73
54 79
54 107
54 130
54 180
54 210
54 233
54 262
54 290
54 295
54 307
55 62
55 72
55 82
55 114
55 128
55 177
55 207
55 232
55 255
55 290
55 298
55 310
56 61
56 75
56 80
56 109
56 125
56 182
56 205
56 235
56 252
56 291
56 297
56 309
57 64
57 74
57 77
57 104
57 129
57 179
57 208
57 234
57 257
57 291
57 300
57 312
58 63
58 65
58 81
58 111
58 126
58 184
58 206
58 237
58 254
58 292
58 299
58 311
59 76
59 78
59 106
59 130
59 181
59 209
59 236
59 259
59 292
59 302
59 314
60 67
60 82
60 113
60 127
60 186
60 207
60 239
60 256
60 293
60 301
60 313
61 66
61 79
61 108
61 125
61 183
61 210
61 238
61 261
61 293
61 304
61 316
62 69
62 77
62 103
62 128
62 188
62 208
62 241
62 258
62 294
62 303
62 315
63 68
63 80
63 110
63 126
63 185
63 205
63 240
63 251
63 294
63 306
63 318
64 71
64 78
64 105
64 129
64 178
64 209
64 231
64 260
64 289
64 305
64 317
65 69
65 73
65 81
65 100
65 146
65 163
65 174
65 241
65 296
65 306
65 319
65 323
66 70
66 74
66 79
66 153
66 164
66 175
66 234
66 295
66 297
67 71
67 75
67 82
67 124
67 148
67 159
67 166
67 231
67 296
67 298
68 72
68 76
68 80
68 123
68 143
68 160
68 167
68 236
68 297
68 299
69 73
69 77
69 150
69 162
69 169
69 233
69 298
69 300
70 74
70 81
70 99
70 145
70 163
70 170
70 238
70 299
70 301
70 320
70 324
71 75
71 78
71 102
71 152
71 165
71 172
71 235
71 300
71 302
71 321
71 325
72 76
72 82
72 147
72 166
72 173
72 240
72 301
72 303
73 79
73 122
73 154
73 168
73 175
73 237
73 302
73 304
74 77
74 121
74 149
74 169
74 176
74 242
74 303
74 305
75 80
75 144
75 160
75 171
75 239
75 304
75 306
76 78
76 101
76 151
76 161
76 172
76 232
76 295
76 305
76 322
76 326
77 85
77 134
77 141
77 233
77 242
77 265
77 274
77 319
77 327
77 328
78 87
78 90
78 131
78 136
78 232
78 235
78 264
78 267
79 84
79 133
79 138
79 234
79 237
79 266
79 269
79 320
79 329
79 330
80 89
80 135
80 140
80 236
80 239
80 268
80 271
80 321
80 331
80 332
81 83
81 86
81 137
81 142
81 238
81 241
81 270
81 273
82 88
82 132
82 139
82 231
82 240
82 263
82 272
82 322
82 333
82 334
83 116
83 145
83 244
83 273
83 287
83 308
83 327
83 335
84 120
84 154
84 156
84 243
84 266
84 280
84 307
84 328
84 336
85 118
85 149
85 155
85 246
85 265
85 279
85 312
85 329
85 337
86 116
86 146
86 245
86 270
86 284
86 311
86 330
86 338
87 119
87 151
87 248
87 267
87 281
87 314
87 331
87 338
88 117
88 148
88 158
88 247
88 272
88 286
88 313
88 332
88 339
89 115
89 143
89 157
89 250
89 271
89 285
89 318
89 333
89 340
90 119
90 152
90 249
90 264
90 278
90 317
90 334
90 335
91 107
91 188
91 214
91 222
91 295
92 114
92 124
92 181
92 211
92 215
92 298
93 109
93 123
93 178
93 212
93 216
93 297
94 104
94 183
94 213
94 217
94 300
95 113
95 182
95 216
95 220
95 301
96 108
96 122
96 187
96 217
96 221
96 304
97 103
97 121
97 184
97 218
97 222
97 303
98 110
98 177
98 211
98 219
98 306
99 142
99 176
100 137
100 168
101 136
101 167
102 131
102 159
103 106
103 130
103 194
103 241
103 290
103 318
103 328
103 335
104 113
104 127
104 190
104 234
104 275
104 289
104 309
104 327
104 336
105 108
105 125
105 196
105 231
105 291
105 308
105 336
105 341
106 128
106 193
106 236
106 290
106 311
106 337
106 342
107 110
107 126
107 189
107 233
107 275
107 292
107 310
107 330
107 337
108 129
108 195
108 238
108 291
108 313
108 329
108 338
109 112
109 127
109 198
109 235
109 293
109 312
109 332
109 338
110 130
110 192
110 240
110 276
110 292
110 315
110 331
110 339
111 114
111 128
111 200
111 237
111 294
111 314
111 339
111 343
112 125
112 197
112 242
112 293
112 317
112 340
112 344
113 129
113 191
113 239
113 276
113 289
113 316
113 334
113 340
114 126
114 199
114 232
114 294
114 307
114 333
114 335
115 206
115 210
115 233
115 242
115 322
116 205
116 207
116 232
116 235
116 357
117 206
117 208
117 234
117 237
117 321
118 207
118 209
118 236
118 239
118 320
119 208
119 210
119 238
119 241
119 358
120 205
120 209
120 231
120 240
120 319
121 145
121 179
121 328
122 146
122 180
122 329
123 151
123 185
123 332
124 152
124 186
124 333
125 133
125 140
125 201
125 204
125 252
125 261
125 308
125 317
125 345
125 356
126 135
126 142
126 156
126 202
126 251
126 254
126 307
126 310
126 323
126 346
126 347
127 132
127 137
127 155
127 201
127 253
127 256
127 309
127 312
127 324
127 348
127 349
128 134
128 139
128 202
128 203
128 255
128 258
128 311
128 314
128 350
128 351
129 136
129 141
129 158
129 204
129 257
129 260
129 313
129 316
129 325
129 352
129 353
130 131
130 138
130 157
130 203
130 259
130 262
130 315
130 318
130 326
130 354
130 355
131 158
131 189
131 213
131 229
131 326
131 334
132 222
132 250
133 215
133 223
133 245
133 328
133 342
133 357
134 212
134 226
134 244
134 329
134 341
134 357
135 217
135 247
136 157
136 190
136 214
136 228
136 325
136 331
137 156
137 191
137 219
137 225
137 324
137 330
138 216
138 246
139 221
139 227
139 249
139 332
139 344
139 358
140 218
140 230
140 248
140 333
140 343
140 358
141 211
141 243
142 155
142 192
142 220
142 224
142 323
142 327
143 194
143 200
143 288
143 318
143 346
144 195
144 230
144 279
144 309
144 345
145 196
145 225
145 278
145 308
145 348
146 193
146 224
146 281
146 311
146 347
147 194
147 227
147 280
147 310
147 350
148 195
148 197
148 283
148 313
148 349
149 196
149 198
149 282
149 312
149 352
150 199
150 226
150 285
150 315
150 351
151 200
151 229
151 284
151 314
151 354
152 197
152 228
152 287
152 317
152 353
153 198
153 223
153 286
153 316
153 356
154 193
154 199
154 277
154 307
154 355
155 243
155 266
155 327
156 246
156 265
156 330
157 247
157 272
157 331
158 250
158 271
158 334
159 162
159 174
159 201
159 221
159 296
160 163
160 175
160 297
160 306
161 164
161 176
161 214
161 295
162 165
162 202
162 211
162 298
162 323
162 357
163 166
163 296
163 299
164 167
164 201
164 216
164 297
164 324
164 357
165 168
165 213
165 300
166 169
166 298
166 301
167 170
167 202
167 218
167 299
168 171
168 203
168 215
168 302
169 172
169 300
169 303
170 173
170 220
170 301
171 174
171 204
171 217
171 304
171 325
171 358
172 175
172 302
172 305
173 176
173 203
173 222
173 303
173 326
173 358
174 219
174 306
175 295
175 304
176 204
176 212
176 305
177 189
177 241
177 290
177 334
177 346
177 359
178 234
178 289
178 345
178 360
179 231
179 291
179 328
179 348
179 361
180 236
180 290
180 329
180 347
180 362
181 233
181 292
181 350
181 363
182 190
182 238
182 291
182 331
182 349
182 364
183 191
183 235
183 293
183 330
183 352
183 365
184 240
184 292
184 351
184 366
185 237
185 294
185 332
185 354
185 367
186 242
186 293
186 333
186 353
186 368
187 239
187 289
187 356
187 369
188 192
188 232
188 294
188 327
188 355
188 370
189 245
189 346
190 244
190 349
191 249
191 352
192 248
192 355
193 262
193 279
194 255
194 278
195 252
195 281
196 257
196 280
197 256
197 285
198 261
198 284
199 258
199 287
200 251
200 286
201 357
201 360
201 361
202 357
202 362
202 363
203 358
203 366
203 367
204 358
204 368
204 369
205 265
205 274
205 297
205 306
205 359
205 360
205 371
206 264
206 267
206 296
206 299
206 361
206 362
207 266
207 269
207 298
207 301
207 363
207 364
207 372
208 268
208 271
208 300
208 303
208 365
208 366
208 373
209 270
209 273
209 302
209 305
209 367
209 368
210 263
210 272
210 295
210 304
210 369
210 370
210 374
211 244
211 287
212 243
212 280
212 341
213 277
214 282
215 246
215 279
215 342
216 245
216 284
217 248
217 281
218 247
218 286
218 343
219 283
220 288
221 250
221 285
221 344
222 249
222 278
223 290
223 356
223 371
224 275
224 289
224 319
224 347
224 371
225 275
225 292
225 320
225 348
225 372
226 291
226 351
226 372
227 293
227 350
227 373
228 276
228 292
228 321
228 353
228 373
229 276
229 289
229 322
229 354
229 374
230 294
230 345
230 374
231 242
231 253
231 336
231 360
232 233
232 262
232 322
232 335
232 359
233 255
233 337
233 362
234 235
234 252
234 336
234 361
235 257
235 321
235 338
235 364
236 237
236 254
236 337
236 363
237 259
237 339
237 366
238 239
238 256
238 320
238 338
238 365
239 261
239 340
239 368
240 241
240 258
240 339
240 367
241 251
241 319
241 335
241 370
242 260
242 340
242 369
243 273
243 328
244 266
244 327
244 357
245 265
245 330
245 357
246 270
246 329
247 267
247 332
248 272
248 331
248 358
249 271
249 334
249 358
250 264
250 333
251 346
251 370
251 371
252 341
252 345
252 361
252 371
253 348
253 360
254 347
254 363
255 342
255 350
255 362
255 372
256 349
256 365
256 372
257 352
257 364
257 373
258 343
258 351
258 367
258 373
259 354
259 366
260 353
260 369
261 344
261 356
261 368
261 374
262 355
262 359
262 374
263 290
263 334
263 356
264 289
264 347
265 291
265 328
265 346
266 290
266 329
266 349
267 292
267 348
268 291
268 331
268 351
269 293
269 330
269 350
270 292
270 353
271 294
271 332
271 352
272 293
272 333
272 355
273 289
273 354
274 294
274 327
274 345
277 336
278 335
279 337
280 336
281 338
282 337
283 339
284 338
285 340
286 339
287 335
288 340
289 308
289 317
290 307
290 310
290 342
291 309
291 312
291 341
292 311
292 314
293 313
293 316
293 344
294 315
294 318
294 343
295 326
295 370
296 361
297 360
298 363
299 362
300 325
300 365
301 324
301 364
302 367
303 366
304 369
305 368
306 323
306 359
307 318
308 309
310 311
312 313
314 315
316 317
319 328
319 371
320 329
320 372
321 332
321 373
322 333
322 374
345 356
345 360
346 347
346 359
347 362
348 349
348 361
349 364
350 351
350 363
351 366
352 353
352 365
353 368
354 355
354 367
355 370
356 369
359 370
360 361
362 363
364 365
366 367
368 369
