0 153
0 154
0 155
0 156
0 157
0 158
0 159
0 160
0 161
0 162
0 163
0 164
0 165
0 166
0 167
0 168
0 169
0 170
0 171
0 172
0 173
0 174
0 175
0 176
1 122
1 123
1 129
1 134
1 141
1 145
1 160
1 172
1 179
1 187
1 190
1 200
1 201
1 203
1 219
2 135
2 142
2 146
2 174
2 180
2 188
2 189
2 191
2 202
2 204
3 134
3 143
3 147
3 163
3 177
3 181
3 190
3 192
3 204
3 206
4 124
4 125
4 130
4 135
4 144
4 148
4 152
4 153
4 165
4 178
4 182
4 191
4 193
4 205
4 207
5 126
5 127
5 130
5 136
5 137
5 145
5 149
5 156
5 168
5 179
5 183
5 192
5 194
5 207
5 209
6 131
6 138
6 146
6 158
6 180
6 184
6 193
6 195
6 208
6 210
7 136
7 139
7 147
7 171
7 181
7 185
7 194
7 196
7 210
7 212
8 118
8 119
8 128
8 131
8 140
8 148
8 161
8 173
8 182
8 186
8 195
8 197
8 211
8 213
8 220
9 120
9 128
9 132
9 137
9 141
9 151
9 164
9 176
9 183
9 187
9 196
9 198
9 213
9 215
9 221
10 133
10 138
10 142
10 166
10 184
10 188
10 197
10 199
10 214
10 216
11 132
11 139
11 143
11 155
11 177
11 185
11 198
11 200
11 216
11 218
12 121
12 129
12 133
12 140
12 144
12 150
12 157
12 169
12 178
12 186
12 189
12 199
12 201
12 217
12 222
13 99
13 100
13 113
13 114
13 129
13 130
13 189
13 192
13 219
14 88
14 105
14 106
14 117
14 128
14 130
14 193
14 196
14 220
15 93
15 94
15 109
15 110
15 128
15 129
15 197
15 200
15 221
15 222
16 84
16 97
16 101
16 161
16 175
16 201
16 206
16 226
16 227
17 83
17 98
17 102
17 126
17 151
17 162
17 176
17 202
17 207
17 228
17 229
18 76
18 89
18 103
18 125
18 150
18 159
18 169
18 207
18 212
18 232
18 233
19 87
19 90
19 104
19 160
19 170
19 208
19 213
19 234
19 235
20 78
20 93
20 121
20 165
20 176
20 217
21 80
21 91
21 95
21 119
21 152
21 153
21 167
21 213
21 218
21 224
21 238
21 239
22 79
22 92
22 96
22 122
22 149
22 154
22 168
22 201
22 214
22 223
22 240
22 241
23 81
23 94
23 120
23 156
23 169
23 215
24 81
24 84
24 111
24 114
24 180
24 187
24 227
25 83
25 86
25 113
25 116
25 177
25 182
25 228
26 76
26 85
26 106
26 115
26 179
26 184
26 233
27 78
27 87
27 108
27 117
27 181
27 186
27 234
28 61
28 62
28 80
28 84
28 124
28 140
28 146
28 191
28 199
28 224
28 226
28 258
29 63
29 64
29 73
29 81
29 85
29 126
29 141
29 147
29 192
29 200
29 225
29 246
29 248
30 64
30 65
30 74
30 82
30 86
30 142
30 148
30 189
30 193
30 230
30 247
30 249
31 66
31 67
31 83
31 87
31 123
31 137
31 143
31 190
31 194
31 229
31 259
32 67
32 68
32 76
32 84
32 118
32 138
32 144
32 191
32 195
32 232
32 260
33 52
33 69
33 75
33 77
33 85
33 139
33 145
33 192
33 196
33 231
33 250
33 252
34 52
34 53
34 70
34 78
34 86
34 125
34 140
34 146
34 193
34 197
34 236
34 251
34 253
35 54
35 55
35 79
35 87
35 127
35 141
35 147
35 194
35 198
35 223
35 235
35 261
36 55
36 56
36 76
36 80
36 121
36 142
36 148
36 195
36 199
36 238
36 262
37 57
37 58
37 71
37 77
37 81
37 122
37 137
37 143
37 196
37 200
37 237
37 254
37 256
38 58
38 59
38 72
38 78
38 82
38 119
38 138
38 144
38 189
38 197
38 242
38 255
38 257
39 60
39 61
39 79
39 83
39 120
39 139
39 145
39 190
39 198
39 241
39 263
40 60
40 63
40 94
40 101
40 159
40 172
40 179
40 227
40 246
40 263
40 264
41 61
41 64
41 72
41 95
41 102
41 160
41 174
41 180
41 187
41 229
41 242
41 243
41 247
41 265
42 64
42 67
42 75
42 97
42 104
42 153
42 163
42 177
42 182
42 226
42 231
42 243
42 248
42 266
43 65
43 68
43 98
43 105
43 154
43 165
43 178
43 228
43 249
43 260
43 267
44 66
44 69
44 89
44 100
44 156
44 167
44 183
44 233
44 250
44 259
44 268
45 52
45 67
45 74
45 90
45 101
45 158
45 168
45 179
45 184
45 230
45 235
45 244
45 251
45 269
46 52
46 55
46 71
46 92
46 103
46 161
46 171
46 181
46 186
46 232
46 237
46 244
46 252
46 270
47 53
47 56
47 93
47 104
47 162
47 173
47 182
47 234
47 253
47 262
47 271
48 54
48 57
48 88
48 95
48 164
48 175
48 187
48 239
48 254
48 261
48 272
49 55
49 58
49 70
49 89
49 96
49 166
49 176
49 183
49 188
49 236
49 241
49 245
49 255
49 273
50 58
50 61
50 73
50 91
50 98
50 155
50 169
50 178
50 185
50 225
50 238
50 245
50 256
50 274
51 59
51 62
51 92
51 99
51 157
51 170
51 186
51 240
51 257
51 258
51 275
52 58
52 64
52 92
52 101
52 139
52 146
52 158
52 171
52 204
52 216
52 226
52 241
52 246
52 257
52 265
52 274
52 276
52 287
52 288
52 305
53 59
53 65
53 93
53 102
53 125
53 140
53 159
53 173
53 205
53 217
53 228
53 247
53 275
53 288
53 289
54 60
54 66
54 95
54 147
54 175
54 206
54 218
54 264
54 290
55 61
55 67
55 96
55 103
55 121
55 127
55 141
55 148
55 161
55 176
55 201
55 207
55 225
55 230
55 265
55 266
55 277
55 278
55 290
55 291
56 62
56 68
56 104
56 142
56 162
56 202
56 208
56 267
56 291
57 63
57 69
57 88
57 97
57 122
57 137
57 154
57 164
57 203
57 209
57 227
57 248
57 268
57 292
57 293
58 64
58 89
58 98
58 138
58 143
58 155
58 166
58 204
58 210
58 229
58 232
58 249
58 250
58 266
58 269
58 279
58 280
58 293
58 294
59 65
59 90
59 99
59 119
59 144
59 157
59 167
59 205
59 211
59 234
59 251
59 267
59 294
59 295
60 66
60 101
60 139
60 159
60 206
60 212
60 268
60 296
61 67
61 91
61 102
61 120
61 124
61 140
61 145
61 160
61 169
61 207
61 213
61 231
61 236
61 269
61 270
61 281
61 282
61 296
61 297
62 68
62 92
62 146
62 170
62 208
62 214
62 271
62 297
63 69
63 94
63 103
63 126
63 141
63 162
63 172
63 209
63 215
63 233
63 252
63 272
63 298
63 299
64 95
64 104
64 142
64 147
64 163
64 174
64 210
64 216
64 235
64 238
64 253
64 254
64 270
64 273
64 283
64 284
64 299
64 300
65 96
65 105
65 148
65 165
65 175
65 211
65 217
65 240
65 255
65 271
65 300
65 301
66 89
66 143
66 167
66 212
66 218
66 272
66 302
67 90
67 97
67 118
67 123
67 137
67 144
67 153
67 168
67 201
67 213
67 237
67 242
67 273
67 274
67 285
67 286
67 302
67 303
68 98
68 138
68 154
68 202
68 214
68 275
68 303
69 91
69 100
69 145
69 156
69 170
69 203
69 215
69 239
69 256
69 264
69 304
69 305
70 86
70 110
70 133
70 188
70 222
70 249
70 276
70 289
71 81
71 117
71 136
71 181
71 246
71 279
71 292
72 78
72 114
72 135
72 180
72 253
72 280
72 295
73 85
73 109
73 132
73 185
73 221
73 250
73 283
73 298
74 82
74 106
74 131
74 184
74 220
74 257
74 284
74 301
75 77
75 113
75 134
75 177
75 219
75 254
75 287
75 304
76 115
76 125
76 150
76 191
76 199
76 274
76 277
76 310
77 110
77 127
77 192
77 200
77 264
77 266
77 276
77 306
78 117
78 121
78 189
78 193
78 265
78 267
78 279
79 112
79 122
79 149
79 190
79 194
79 269
79 278
79 311
80 107
80 119
80 152
80 191
80 195
80 266
80 281
80 312
81 114
81 120
81 192
81 196
81 268
81 270
81 280
82 109
82 124
82 193
82 197
82 269
82 271
82 283
82 307
83 116
83 126
83 151
83 194
83 198
83 273
83 282
83 313
84 111
84 195
84 199
84 270
84 285
84 314
85 106
85 123
85 196
85 200
85 272
85 274
85 284
85 308
86 113
86 118
86 189
86 197
86 273
86 275
86 287
86 309
87 108
87 190
87 198
87 265
87 286
87 315
88 158
88 172
88 227
88 304
88 306
88 315
88 316
89 159
89 174
89 229
89 290
89 305
89 317
90 160
90 175
90 242
90 288
90 291
90 318
91 153
91 162
91 231
91 290
91 293
91 320
92 154
92 163
92 226
92 291
92 294
92 321
93 155
93 165
93 228
93 295
93 312
93 322
94 156
94 166
94 233
94 292
94 311
94 322
95 158
95 167
95 235
95 293
95 296
95 323
96 159
96 168
96 230
96 294
96 297
96 324
97 161
97 170
97 237
97 296
97 299
97 326
98 162
98 171
98 232
98 297
98 300
98 327
99 163
99 173
99 234
99 301
99 307
99 314
99 328
100 164
100 174
100 239
100 298
100 308
100 313
100 328
101 166
101 175
101 241
101 299
101 302
101 329
102 167
102 176
102 236
102 300
102 303
102 330
103 154
103 169
103 225
103 302
103 305
103 332
104 155
104 170
104 238
104 288
104 303
104 333
105 157
105 171
105 240
105 289
105 309
105 310
105 316
106 109
106 130
106 179
106 205
106 310
107 116
107 188
107 218
108 111
108 181
108 208
109 129
109 178
109 203
109 311
110 113
110 128
110 183
110 211
110 312
111 180
111 206
112 115
112 185
112 214
113 130
113 182
113 209
113 313
114 117
114 129
114 187
114 217
114 314
115 184
115 212
116 177
116 202
117 128
117 186
117 215
117 315
118 140
118 275
118 310
118 334
118 340
119 148
119 258
119 266
119 334
120 137
120 151
120 268
120 311
120 335
120 341
121 144
121 150
121 267
121 312
121 336
121 342
122 145
122 261
122 269
122 337
123 141
123 272
123 313
123 337
123 343
124 148
124 152
124 224
124 271
124 314
124 338
124 344
125 144
125 222
125 262
125 274
125 338
126 137
126 221
126 263
126 273
126 339
127 145
127 149
127 223
127 264
127 315
127 339
127 345
128 289
128 292
128 306
129 295
129 298
129 307
130 301
130 304
130 308
130 309
131 158
131 173
131 247
131 257
131 340
132 155
132 164
132 248
132 250
132 341
133 157
133 166
133 249
133 251
133 342
134 163
134 172
134 252
134 254
134 343
135 165
135 174
135 253
135 255
135 344
136 156
136 171
136 246
136 256
136 345
137 179
137 187
137 229
137 248
137 315
138 180
138 188
138 242
138 249
138 340
139 177
139 181
139 231
139 246
139 341
139 346
140 178
140 182
140 226
140 247
140 312
141 179
141 183
141 235
141 252
141 311
142 180
142 184
142 230
142 253
142 342
142 347
143 181
143 185
143 237
143 250
143 343
144 182
144 186
144 232
144 251
144 314
145 183
145 187
145 241
145 256
145 313
146 184
146 188
146 236
146 257
146 344
146 348
147 177
147 185
147 225
147 254
147 345
147 349
148 178
148 186
148 238
148 255
148 310
149 263
149 278
150 260
150 277
151 259
151 282
152 262
152 281
153 158
153 174
153 191
153 224
153 243
153 274
153 290
153 304
153 318
153 333
153 334
153 361
154 159
154 175
154 275
154 291
154 305
154 316
154 319
154 353
155 160
155 176
155 200
155 266
155 288
155 317
155 320
155 346
155 350
155 353
155 362
156 192
156 264
156 292
156 335
156 354
157 189
157 267
157 289
157 334
158 161
158 193
158 265
158 293
158 318
158 321
158 350
158 354
158 355
158 363
159 162
159 268
159 290
159 294
159 319
159 322
159 346
159 355
160 163
160 190
160 243
160 269
160 291
160 295
160 320
160 323
160 335
160 364
161 166
161 195
161 244
161 266
161 292
161 296
161 321
161 324
161 336
161 365
162 167
162 267
162 293
162 297
162 322
162 325
162 347
162 356
163 168
163 192
163 270
163 294
163 323
163 326
163 351
163 356
163 357
163 366
164 196
164 268
164 298
164 337
165 193
165 271
165 295
165 336
165 357
166 169
166 197
166 269
166 299
166 324
166 327
166 347
166 351
166 358
166 367
167 170
167 272
167 296
167 300
167 325
167 328
167 358
168 171
168 194
168 223
168 244
168 273
168 297
168 301
168 326
168 329
168 337
168 368
169 174
169 199
169 245
169 270
169 298
169 302
169 327
169 330
169 338
169 369
170 175
170 224
170 271
170 299
170 303
170 328
170 331
170 348
170 359
171 176
171 196
171 274
171 300
171 329
171 332
171 349
171 352
171 359
171 370
172 200
172 272
172 304
172 339
173 197
173 275
173 301
173 338
174 189
174 273
174 305
174 330
174 333
174 348
174 352
174 360
174 371
175 223
175 264
175 288
175 302
175 316
175 331
175 349
175 360
176 198
176 245
176 265
176 289
176 303
176 317
176 332
176 339
176 372
177 248
177 287
177 353
178 222
178 249
178 278
178 310
179 246
179 277
179 311
179 354
180 247
180 280
180 355
181 252
181 279
181 356
182 253
182 282
182 312
182 357
183 221
183 250
183 281
183 313
184 251
184 284
184 358
185 256
185 283
185 359
185 373
186 220
186 257
186 286
186 314
187 219
187 254
187 285
187 315
188 255
188 276
188 360
188 374
189 204
189 217
189 247
189 257
189 309
189 334
189 374
190 201
190 206
190 335
191 202
191 207
191 334
192 204
192 209
192 248
192 250
192 335
193 205
193 210
193 249
193 251
193 336
194 207
194 212
194 337
195 208
195 213
195 336
196 210
196 215
196 252
196 254
196 308
196 337
196 373
197 211
197 216
197 253
197 255
197 307
197 338
198 213
198 218
198 339
199 201
199 214
199 338
200 203
200 216
200 246
200 256
200 306
200 339
201 226
201 241
201 277
201 286
202 228
202 333
202 353
203 320
203 354
204 225
204 230
204 276
204 279
204 353
204 355
205 318
206 227
206 323
206 355
207 229
207 232
207 278
207 281
208 234
208 321
208 356
209 326
210 231
210 236
210 280
210 283
210 356
210 358
211 324
211 357
212 233
212 329
212 358
213 235
213 238
213 282
213 285
214 240
214 327
214 359
215 332
216 237
216 242
216 284
216 287
216 359
216 360
217 330
218 239
218 317
218 360
219 243
219 304
220 244
220 301
221 245
221 298
222 245
222 289
223 261
223 286
223 349
224 258
224 285
224 348
225 274
225 290
225 345
225 353
225 372
226 258
226 266
226 288
226 363
227 264
227 292
227 355
228 267
228 289
228 353
229 259
229 265
229 293
229 362
230 269
230 291
230 342
230 355
230 365
231 266
231 296
231 341
231 356
231 364
232 260
232 270
232 294
232 367
233 268
233 298
233 358
234 271
234 295
234 356
235 261
235 269
235 299
235 366
236 273
236 297
236 344
236 358
236 369
237 270
237 302
237 343
237 359
237 368
238 262
238 274
238 300
238 371
239 272
239 304
239 360
240 275
240 301
240 359
241 263
241 273
241 305
241 370
242 265
242 303
242 340
242 360
242 361
246 263
246 346
246 354
247 340
247 355
248 306
248 341
248 353
249 260
250 259
251 307
251 342
251 358
252 343
252 356
253 262
253 347
253 357
254 261
254 349
254 373
255 309
255 344
255 360
256 308
256 345
256 359
257 258
257 348
257 374
258 334
259 335
260 336
261 337
262 338
263 339
264 290
264 304
264 345
265 291
265 305
265 315
265 350
266 290
266 294
266 312
266 350
267 291
267 295
267 342
268 292
268 296
268 341
269 293
269 297
269 311
269 351
270 296
270 300
270 314
270 351
271 297
271 301
271 344
272 298
272 302
272 343
273 299
273 303
273 313
273 352
274 288
274 302
274 310
274 352
275 289
275 303
275 340
276 287
276 374
277 278
277 310
278 311
279 280
279 346
280 347
281 282
281 312
282 313
283 284
283 373
284 348
285 286
285 314
286 315
287 349
288 318
288 353
289 319
290 317
290 355
291 321
291 353
292 319
292 354
293 320
293 355
294 324
294 356
295 325
295 357
296 323
296 358
297 327
297 356
298 325
299 326
299 358
300 330
300 359
301 331
302 329
302 360
303 333
303 359
304 331
305 332
305 360
306 315
306 350
307 314
307 351
308 313
308 352
309 310
309 352
310 334
311 335
312 336
313 337
314 338
315 339
317 333
317 362
317 372
318 320
318 361
318 363
320 362
320 364
321 323
321 363
321 365
323 364
323 366
324 326
324 365
324 367
326 366
326 368
327 329
327 367
327 369
329 368
329 370
330 332
330 369
330 371
332 370
332 372
333 361
333 371
340 374
341 346
342 347
343 373
344 348
345 349
346 353
347 358
348 360
349 359
359 373
360 374
