0 154
0 155
0 156
0 157
0 158
0 159
0 160
0 161
0 162
0 163
0 164
0 165
0 166
0 167
0 168
0 169
0 170
0 171
0 172
0 173
0 174
0 175
0 176
0 177
1 125
1 126
1 131
1 136
1 143
1 147
1 153
1 161
1 173
1 180
1 188
1 191
1 201
1 202
1 204
1 220
2 137
2 144
2 148
2 175
2 181
2 189
2 190
2 192
2 203
2 205
3 136
3 145
3 149
3 164
3 178
3 182
3 191
3 193
3 205
3 207
4 127
4 132
4 137
4 146
4 150
4 154
4 166
4 179
4 183
4 192
4 194
4 206
4 208
4 221
5 128
5 129
5 132
5 138
5 139
5 147
5 151
5 157
5 169
5 180
5 184
5 193
5 195
5 208
5 210
5 222
6 133
6 140
6 148
6 159
6 181
6 185
6 194
6 196
6 209
6 211
7 138
7 141
7 149
7 172
7 182
7 186
7 195
7 197
7 211
7 213
8 121
8 130
8 133
8 142
8 150
8 162
8 174
8 183
8 187
8 196
8 198
8 212
8 214
8 223
9 122
9 123
9 130
9 134
9 139
9 143
9 152
9 165
9 177
9 184
9 188
9 197
9 199
9 214
9 216
9 224
10 135
10 140
10 144
10 167
10 185
10 189
10 198
10 200
10 215
10 217
11 134
11 141
11 145
11 156
11 178
11 186
11 199
11 201
11 217
11 219
12 124
12 131
12 135
12 142
12 146
12 158
12 170
12 179
12 187
12 190
12 200
12 202
12 218
12 225
13 101
13 102
13 113
13 114
13 131
13 132
13 190
13 193
13 220
13 221
14 94
14 105
14 106
14 117
14 130
14 132
14 194
14 197
14 222
14 223
15 97
15 98
15 109
15 110
15 130
15 131
15 198
15 201
15 224
15 225
16 88
16 101
16 127
16 161
16 174
16 206
17 90
17 103
17 119
17 162
17 176
17 202
17 207
17 226
17 230
17 231
18 89
18 100
18 120
18 128
18 152
18 163
18 177
18 203
18 208
18 232
18 233
19 92
19 105
19 121
19 158
19 169
19 212
20 82
20 95
20 120
20 160
20 170
20 208
20 213
20 227
20 236
20 237
21 93
21 104
21 118
21 122
21 153
21 161
21 171
21 209
21 214
21 238
21 239
22 84
22 97
22 124
22 166
22 177
22 218
23 86
23 99
23 118
23 154
23 168
23 214
23 219
23 228
23 242
23 243
24 85
24 96
24 119
24 125
24 151
24 155
24 169
24 202
24 215
24 244
24 245
25 87
25 90
25 111
25 114
25 181
25 188
25 231
26 82
26 91
26 106
26 115
26 180
26 185
26 237
27 83
27 86
27 107
27 110
27 184
27 189
27 243
28 61
28 62
28 74
28 86
28 90
28 127
28 142
28 148
28 192
28 200
28 228
28 230
28 262
29 63
29 64
29 76
29 87
29 91
29 128
29 143
29 149
29 193
29 201
29 229
29 250
29 252
30 64
30 65
30 79
30 88
30 92
30 144
30 150
30 190
30 194
30 234
30 251
30 253
31 66
31 67
31 81
31 89
31 93
31 126
31 139
31 145
31 191
31 195
31 233
31 263
32 67
32 68
32 78
32 82
32 90
32 121
32 140
32 146
32 192
32 196
32 226
32 236
32 264
33 52
33 69
33 80
33 83
33 91
33 122
33 141
33 147
33 193
33 197
33 235
33 254
33 256
34 52
34 53
34 71
34 84
34 92
34 142
34 148
34 194
34 198
34 240
34 255
34 257
35 54
35 55
35 73
35 85
35 93
35 129
35 143
35 149
35 195
35 199
35 239
35 265
36 55
36 56
36 70
36 82
36 86
36 124
36 144
36 150
36 196
36 200
36 227
36 242
36 266
37 57
37 58
37 72
37 83
37 87
37 125
37 139
37 145
37 197
37 201
37 241
37 258
37 260
38 58
38 59
38 75
38 84
38 88
38 140
38 146
38 190
38 198
38 246
38 259
38 261
39 60
39 61
39 77
39 85
39 89
39 123
39 141
39 147
39 191
39 199
39 245
39 267
40 60
40 63
40 98
40 103
40 160
40 173
40 180
40 231
40 250
40 267
40 268
41 61
41 64
41 75
41 99
41 161
41 175
41 181
41 188
41 233
41 246
41 247
41 251
41 269
42 64
42 67
42 80
42 104
42 154
42 164
42 178
42 183
42 230
42 235
42 247
42 252
42 270
43 65
43 68
43 100
43 105
43 155
43 166
43 179
43 232
43 253
43 264
43 271
44 66
44 69
44 95
44 102
44 157
44 168
44 184
44 237
44 254
44 263
44 272
45 52
45 67
45 79
45 103
45 159
45 169
45 180
45 185
45 234
45 239
45 248
45 255
45 273
46 52
46 55
46 72
46 96
46 162
46 172
46 182
46 187
46 236
46 241
46 248
46 256
46 274
47 53
47 56
47 97
47 104
47 163
47 174
47 183
47 238
47 257
47 266
47 275
48 54
48 57
48 94
48 99
48 165
48 176
48 188
48 243
48 258
48 265
48 276
49 55
49 58
49 71
49 95
49 167
49 177
49 184
49 189
49 240
49 245
49 249
49 259
49 277
50 58
50 61
50 76
50 100
50 156
50 170
50 179
50 186
50 229
50 242
50 249
50 260
50 278
51 59
51 62
51 96
51 101
51 158
51 171
51 187
51 244
51 261
51 262
51 279
52 58
52 64
52 96
52 103
52 141
52 148
52 159
52 172
52 205
52 217
52 230
52 245
52 250
52 261
52 269
52 278
52 280
52 291
52 292
52 309
53 59
53 65
53 97
53 142
53 160
53 174
53 206
53 218
53 232
53 251
53 279
53 292
53 293
54 60
54 66
54 99
54 149
54 176
54 207
54 219
54 268
54 294
55 61
55 67
55 124
55 129
55 143
55 150
55 162
55 177
55 202
55 208
55 229
55 234
55 269
55 270
55 281
55 282
55 294
55 295
56 62
56 68
56 104
56 144
56 163
56 203
56 209
56 271
56 295
57 63
57 69
57 94
57 125
57 139
57 155
57 165
57 204
57 210
57 231
57 252
57 272
57 296
57 297
58 64
58 95
58 100
58 140
58 145
58 156
58 167
58 205
58 211
58 233
58 236
58 253
58 254
58 270
58 273
58 283
58 284
58 297
58 298
59 65
59 101
59 146
59 158
59 168
59 206
59 212
59 238
59 255
59 271
59 298
59 299
60 66
60 103
60 141
60 160
60 207
60 213
60 272
60 300
61 67
61 123
61 127
61 142
61 147
61 161
61 170
61 208
61 214
61 235
61 240
61 273
61 274
61 285
61 286
61 300
61 301
62 68
62 96
62 148
62 171
62 209
62 215
62 275
62 301
63 69
63 98
63 128
63 143
63 163
63 173
63 210
63 216
63 237
63 256
63 276
63 302
63 303
64 99
64 104
64 144
64 149
64 164
64 175
64 211
64 217
64 239
64 242
64 257
64 258
64 274
64 277
64 287
64 288
64 303
64 304
65 105
65 150
65 166
65 176
65 212
65 218
65 244
65 259
65 275
65 304
65 305
66 95
66 145
66 168
66 213
66 219
66 276
66 306
67 121
67 126
67 139
67 146
67 154
67 169
67 202
67 214
67 241
67 246
67 277
67 278
67 289
67 290
67 306
67 307
68 100
68 140
68 155
68 203
68 215
68 279
68 307
69 102
69 122
69 147
69 157
69 171
69 204
69 216
69 243
69 260
69 268
69 308
69 309
70 86
70 181
70 294
71 92
71 110
71 135
71 189
71 225
71 253
71 280
71 293
72 87
72 117
72 138
72 182
72 222
72 250
72 283
72 296
73 93
73 178
73 295
74 90
74 185
74 300
75 84
75 114
75 137
75 181
75 221
75 257
75 284
75 299
76 91
76 109
76 134
76 186
76 224
76 254
76 287
76 302
77 85
77 182
77 301
78 82
78 189
78 306
79 88
79 106
79 133
79 185
79 223
79 261
79 288
79 305
80 83
80 113
80 136
80 178
80 220
80 258
80 291
80 308
81 89
81 186
81 307
82 115
82 192
82 200
82 278
82 281
82 313
83 110
83 129
83 193
83 201
83 268
83 270
83 280
83 310
84 117
84 124
84 190
84 194
84 269
84 271
84 283
85 112
85 125
85 151
85 191
85 195
85 273
85 282
85 314
86 107
86 192
86 196
86 270
86 285
86 315
87 114
87 123
87 193
87 197
87 272
87 274
87 284
87 311
88 109
88 127
88 194
88 198
88 273
88 275
88 287
89 116
89 128
89 152
89 195
89 199
89 277
89 286
89 316
90 111
90 196
90 200
90 274
90 289
90 317
91 106
91 126
91 197
91 201
91 276
91 278
91 288
91 312
92 113
92 121
92 190
92 198
92 277
92 279
92 291
93 108
93 122
93 153
93 191
93 199
93 269
93 290
93 318
94 159
94 173
94 231
94 308
94 310
94 318
94 319
95 120
95 160
95 175
95 233
95 294
95 309
95 320
96 119
96 155
96 164
96 230
96 295
96 298
96 324
97 156
97 166
97 232
97 299
97 315
97 325
98 157
98 167
98 237
98 296
98 311
98 314
98 325
99 118
99 159
99 168
99 239
99 297
99 300
99 326
100 120
100 163
100 172
100 236
100 301
100 304
100 330
101 164
101 174
101 238
101 305
101 317
101 331
102 165
102 175
102 243
102 302
102 312
102 316
102 331
103 119
103 167
103 176
103 245
103 303
103 306
103 332
104 118
104 156
104 171
104 242
104 292
104 307
104 336
105 158
105 172
105 244
105 293
105 313
105 319
106 109
106 132
106 180
106 206
106 313
107 116
107 189
107 219
108 111
108 182
108 209
109 131
109 179
109 204
109 314
110 113
110 130
110 184
110 212
110 315
111 181
111 207
112 115
112 186
112 215
113 132
113 183
113 210
113 316
114 117
114 131
114 188
114 218
114 317
115 185
115 213
116 178
116 203
117 130
117 187
117 216
117 318
118 321
118 323
119 327
119 329
120 333
120 335
121 142
121 226
121 279
121 313
121 337
121 343
122 143
122 220
122 263
122 269
122 338
123 139
123 152
123 272
123 314
123 338
123 344
124 146
124 227
124 271
124 315
124 339
124 345
125 147
125 222
125 265
125 273
125 340
126 143
126 153
126 276
126 316
126 340
126 346
127 150
127 228
127 275
127 317
127 341
127 347
128 139
128 224
128 267
128 277
128 342
129 147
129 151
129 268
129 318
129 342
129 348
130 293
130 296
130 310
131 299
131 302
131 311
132 305
132 308
132 312
133 159
133 174
133 251
133 261
133 343
134 156
134 165
134 252
134 254
134 344
135 158
135 167
135 253
135 255
135 345
136 164
136 173
136 256
136 258
136 346
137 166
137 175
137 257
137 259
137 347
138 157
138 172
138 250
138 260
138 348
139 180
139 188
139 233
139 252
139 318
140 181
140 189
140 246
140 253
140 343
140 349
141 178
141 182
141 235
141 250
141 344
141 350
142 179
142 183
142 230
142 251
142 315
143 180
143 184
143 239
143 256
143 314
144 181
144 185
144 234
144 257
144 345
144 351
145 182
145 186
145 241
145 254
145 346
145 352
146 183
146 187
146 236
146 255
146 317
147 184
147 188
147 245
147 260
147 316
148 185
148 189
148 240
148 261
148 347
148 353
149 178
149 186
149 229
149 258
149 348
149 354
150 179
150 187
150 242
150 259
150 313
151 267
151 282
152 263
152 286
153 265
153 290
154 159
154 175
154 192
154 228
154 247
154 278
154 294
154 308
154 321
154 336
154 337
154 364
155 160
155 176
155 226
155 279
155 295
155 309
155 319
155 322
155 349
155 358
156 161
156 177
156 201
156 270
156 292
156 320
156 323
156 350
156 355
156 358
156 365
157 193
157 268
157 296
157 338
158 190
158 271
158 293
158 337
159 162
159 194
159 269
159 297
159 321
159 324
159 349
159 355
159 359
159 366
160 163
160 272
160 294
160 298
160 322
160 325
160 350
160 359
161 164
161 191
161 247
161 273
161 295
161 299
161 323
161 326
161 338
161 367
162 167
162 196
162 226
162 248
162 270
162 296
162 300
162 324
162 327
162 339
162 368
163 168
163 227
163 271
163 297
163 301
163 325
163 328
163 351
163 360
164 169
164 193
164 274
164 298
164 326
164 329
164 352
164 356
164 360
164 369
165 197
165 272
165 302
165 340
166 194
166 275
166 299
166 339
167 170
167 198
167 273
167 303
167 327
167 330
167 351
167 356
167 361
167 370
168 171
168 276
168 300
168 304
168 328
168 331
168 352
168 361
169 172
169 195
169 248
169 277
169 301
169 305
169 329
169 332
169 340
169 371
170 175
170 200
170 227
170 249
170 274
170 302
170 306
170 330
170 333
170 341
170 372
171 176
171 228
171 275
171 303
171 307
171 331
171 334
171 353
171 362
172 177
172 197
172 278
172 304
172 332
172 335
172 354
172 357
172 362
172 373
173 201
173 276
173 308
173 342
174 198
174 279
174 305
174 341
175 190
175 277
175 309
175 333
175 336
175 353
175 357
175 363
175 374
176 268
176 292
176 306
176 319
176 334
176 354
176 363
177 199
177 249
177 269
177 293
177 307
177 320
177 335
177 342
177 375
178 252
178 291
178 358
179 225
179 253
179 282
179 313
180 222
180 250
180 281
180 314
181 251
181 284
181 359
182 256
182 283
182 360
183 221
183 257
183 286
183 315
184 224
184 254
184 285
184 316
185 255
185 288
185 361
186 260
186 287
186 362
187 223
187 261
187 290
187 317
188 220
188 258
188 289
188 318
189 259
189 280
189 363
190 205
190 218
190 251
190 261
190 337
191 202
191 207
191 338
192 203
192 208
192 337
193 205
193 210
193 252
193 254
193 311
193 338
194 206
194 211
194 253
194 255
194 339
195 208
195 213
195 340
196 209
196 214
196 339
197 211
197 216
197 256
197 258
197 312
197 340
198 212
198 217
198 257
198 259
198 341
199 214
199 219
199 342
200 202
200 215
200 341
201 204
201 217
201 250
201 260
201 310
201 342
202 230
202 245
202 281
202 290
203 232
203 336
203 358
204 323
205 229
205 234
205 280
205 283
205 358
205 359
206 321
207 231
207 326
207 359
208 233
208 236
208 282
208 285
209 238
209 324
209 360
210 329
211 235
211 240
211 284
211 287
211 360
211 361
212 327
213 237
213 332
213 361
214 239
214 242
214 286
214 289
215 244
215 330
215 362
216 335
217 241
217 246
217 288
217 291
217 362
217 363
218 333
219 243
219 320
219 363
220 247
220 308
221 247
221 299
222 248
222 296
223 248
223 305
224 249
224 302
225 249
225 293
226 264
226 281
226 349
227 266
227 285
227 351
228 262
228 289
228 353
229 278
229 294
229 348
229 358
229 375
230 262
230 270
230 292
230 366
231 268
231 296
231 359
232 271
232 293
232 358
233 263
233 269
233 297
233 365
234 273
234 295
234 345
234 359
234 368
235 270
235 300
235 344
235 360
235 367
236 264
236 274
236 298
236 370
237 272
237 302
237 361
238 275
238 299
238 360
239 265
239 273
239 303
239 369
240 277
240 301
240 347
240 361
240 372
241 274
241 306
241 346
241 362
241 371
242 266
242 278
242 304
242 374
243 276
243 308
243 363
244 279
244 305
244 362
245 267
245 277
245 309
245 373
246 269
246 307
246 343
246 363
246 364
250 267
250 350
251 343
251 359
252 310
252 344
252 358
253 264
253 349
254 263
254 352
255 345
255 361
256 311
256 346
256 360
257 266
257 351
258 265
258 354
259 347
259 363
260 312
260 348
260 362
261 262
261 353
262 337
263 338
264 339
265 340
266 341
267 342
268 294
268 308
268 348
269 295
269 309
269 318
269 355
270 294
270 298
270 315
270 355
271 295
271 299
271 345
272 296
272 300
272 344
273 297
273 301
273 314
273 356
274 300
274 304
274 317
274 356
275 301
275 305
275 347
276 302
276 306
276 346
277 303
277 307
277 316
277 357
278 292
278 306
278 313
278 357
279 293
279 307
279 343
280 291
280 349
281 282
281 313
282 314
283 284
283 350
284 351
285 286
285 315
286 316
287 288
287 352
288 353
289 290
289 317
290 318
291 354
292 321
292 358
293 322
294 320
294 359
295 324
295 358
296 322
297 323
297 359
298 327
298 360
299 328
300 326
300 361
301 330
301 360
302 328
303 329
303 361
304 333
304 362
305 334
306 332
306 363
307 336
307 362
308 334
309 335
309 363
310 318
310 355
311 314
311 356
312 316
312 357
313 337
314 338
315 339
316 340
317 341
318 342
320 336
320 365
320 375
321 323
321 364
321 366
323 365
323 367
324 326
324 366
324 368
326 367
326 369
327 329
327 368
327 370
329 369
329 371
330 332
330 370
330 372
332 371
332 373
333 335
333 372
333 374
335 373
335 375
336 364
336 374
343 349
344 350
345 351
346 352
347 353
348 354
349 359
350 358
351 361
352 360
353 363
354 362
