0 160
0 161
0 162
0 163
0 164
0 165
0 166
0 167
0 168
0 169
0 170
0 171
0 172
0 173
0 174
0 175
0 176
0 177
0 178
0 179
0 180
0 181
0 182
0 183
1 139
1 144
1 152
1 156
1 166
1 186
1 194
1 200
1 210
1 211
1 213
2 130
2 131
2 140
2 145
2 153
2 157
2 168
2 180
2 187
2 195
2 199
2 201
2 212
2 214
2 229
3 132
3 133
3 140
3 146
3 154
3 158
3 171
3 183
3 184
3 188
3 200
3 202
3 214
3 216
3 230
4 141
4 147
4 155
4 159
4 161
4 185
4 189
4 201
4 203
4 215
4 217
5 141
5 146
5 148
5 156
5 174
5 186
5 190
5 202
5 204
5 217
5 219
6 134
6 135
6 136
6 147
6 149
6 157
6 164
6 176
6 187
6 191
6 203
6 205
6 218
6 220
6 231
7 124
7 125
7 136
7 142
7 150
7 158
7 167
7 179
7 188
7 192
7 204
7 206
7 220
7 222
7 232
8 137
8 143
8 151
8 159
8 169
8 189
8 193
8 205
8 207
8 221
8 223
9 137
9 142
9 148
9 152
9 182
9 190
9 194
9 206
9 208
9 223
9 225
10 126
10 127
10 138
10 143
10 149
10 153
10 160
10 172
10 191
10 195
10 207
10 209
10 224
10 226
10 233
11 128
11 129
11 138
11 144
11 150
11 154
11 163
11 175
11 184
11 192
11 208
11 210
11 226
11 228
11 234
12 139
12 145
12 151
12 155
12 177
12 185
12 193
12 199
12 209
12 211
12 227
13 102
13 103
13 114
13 115
13 138
13 140
13 196
13 198
13 200
13 209
13 229
13 234
14 116
14 117
14 139
14 141
14 199
14 202
15 106
15 107
15 118
15 119
15 136
15 140
15 196
15 197
15 201
15 204
15 230
15 231
16 109
16 120
16 137
16 141
16 203
16 206
17 98
17 99
17 110
17 111
17 136
17 138
17 197
17 198
17 205
17 208
17 232
17 233
18 112
18 113
18 137
18 139
18 207
18 210
19 90
19 101
19 123
19 132
19 165
19 179
19 214
19 227
19 240
19 241
19 242
20 92
20 103
20 129
20 167
20 180
20 228
21 93
21 106
21 134
21 160
21 171
21 218
22 95
22 108
22 123
22 131
22 162
22 172
22 214
22 219
22 237
22 245
22 246
23 94
23 105
23 121
23 124
23 163
23 173
23 215
23 220
23 236
23 247
23 248
24 96
24 107
24 133
24 164
24 175
24 216
25 85
25 98
25 126
25 168
25 179
25 224
26 87
26 100
26 121
26 135
26 170
26 180
26 220
26 225
26 239
26 251
26 252
27 86
27 97
27 122
27 128
27 171
27 181
27 221
27 226
27 238
27 253
27 254
28 88
28 99
28 125
28 172
28 183
28 222
29 89
29 102
29 130
29 163
29 176
29 212
30 91
30 104
30 122
30 127
30 164
30 178
30 213
30 226
30 235
30 257
30 258
31 90
31 93
31 114
31 117
31 187
31 194
31 241
32 92
32 95
32 116
32 119
32 184
32 189
32 246
33 85
33 94
33 109
33 118
33 186
33 191
33 247
34 87
34 96
34 111
34 120
34 188
34 193
34 252
35 86
35 89
35 110
35 113
35 190
35 195
35 253
36 88
36 91
36 112
36 115
36 185
36 192
36 258
37 70
37 71
37 82
37 89
37 93
37 127
37 151
37 157
37 201
37 209
37 243
37 266
37 276
38 72
38 73
38 90
38 94
38 129
38 152
38 158
38 202
38 210
38 236
38 242
38 277
39 73
39 74
39 91
39 95
39 134
39 153
39 159
39 199
39 203
39 235
39 245
39 278
40 75
40 76
40 83
40 92
40 96
40 124
40 148
40 154
40 200
40 204
40 244
40 267
40 269
41 76
41 77
41 84
41 85
41 93
41 131
41 149
41 155
41 201
41 205
41 249
41 268
41 270
42 61
42 78
42 86
42 94
42 133
42 150
42 156
42 202
42 206
42 238
42 248
42 279
43 61
43 62
43 87
43 95
43 126
43 151
43 157
43 203
43 207
43 237
43 251
43 280
44 63
44 64
44 79
44 88
44 96
44 128
44 152
44 158
44 204
44 208
44 250
44 271
44 273
45 64
45 65
45 80
45 85
45 89
45 135
45 153
45 159
45 205
45 209
45 255
45 272
45 274
46 66
46 67
46 86
46 90
46 125
46 148
46 154
46 206
46 210
46 240
46 254
46 281
47 67
47 68
47 87
47 91
47 130
47 149
47 155
47 199
47 207
47 239
47 257
47 282
48 69
48 70
48 81
48 88
48 92
48 132
48 150
48 156
48 200
48 208
48 256
48 265
48 275
49 70
49 73
49 83
49 105
49 166
49 180
49 187
49 194
49 244
49 257
49 259
49 260
49 265
49 283
50 71
50 74
50 101
50 106
50 168
50 181
50 195
50 241
50 266
50 278
50 284
51 72
51 75
51 103
51 108
51 170
51 183
51 188
51 246
51 267
51 277
51 285
52 73
52 76
52 82
52 104
52 161
52 171
52 184
52 189
52 243
52 248
52 260
52 261
52 268
52 286
53 61
53 76
53 79
53 97
53 164
53 174
53 186
53 191
53 245
53 250
53 261
53 262
53 269
53 287
54 62
54 77
54 98
54 105
54 165
54 176
54 187
54 247
54 270
54 280
54 288
55 63
55 78
55 100
55 107
55 167
55 178
55 192
55 252
55 271
55 279
55 289
56 61
56 64
56 84
56 108
56 169
56 179
56 188
56 193
56 249
56 254
56 262
56 263
56 272
56 290
57 64
57 67
57 81
57 101
57 172
57 182
57 190
57 195
57 251
57 256
57 263
57 264
57 273
57 291
58 65
58 68
58 97
58 102
58 160
58 173
58 191
58 253
58 274
58 282
58 292
59 66
59 69
59 99
59 104
59 162
59 175
59 184
59 258
59 275
59 281
59 293
60 67
60 70
60 80
60 100
60 163
60 177
60 185
60 192
60 242
60 255
60 259
60 264
60 276
60 294
61 67
61 73
61 126
61 133
61 150
61 157
61 164
61 179
61 214
61 226
61 243
61 256
61 283
61 294
61 295
61 306
61 307
61 318
62 68
62 74
62 105
62 151
62 165
62 215
62 227
62 284
62 307
63 69
63 75
63 107
63 128
63 158
63 167
63 181
63 216
63 228
63 258
63 265
63 285
63 308
64 70
64 76
64 101
64 108
64 152
64 159
64 169
64 182
64 211
64 217
64 242
64 245
64 266
64 267
64 283
64 286
64 296
64 297
65 71
65 77
65 102
65 135
65 153
65 160
65 170
65 212
65 218
65 247
65 268
65 284
65 309
66 72
66 78
66 104
66 148
66 162
66 213
66 219
66 285
66 310
67 73
67 125
67 130
67 149
67 154
67 163
67 172
67 214
67 220
67 244
67 249
67 286
67 287
67 298
67 299
67 310
67 311
68 74
68 97
68 155
68 173
68 215
68 221
68 288
68 311
69 75
69 99
69 132
69 150
69 165
69 175
69 216
69 222
69 246
69 269
69 289
69 312
70 76
70 100
70 105
70 151
70 156
70 166
70 177
70 217
70 223
70 248
70 251
70 270
70 271
70 287
70 290
70 300
70 301
71 77
71 106
71 127
71 157
71 168
71 178
71 218
71 224
71 253
71 272
71 288
71 313
72 78
72 108
72 152
72 170
72 219
72 225
72 289
72 314
73 129
73 134
73 153
73 158
73 171
73 180
73 220
73 226
73 250
73 255
73 290
73 291
73 302
73 303
73 314
73 315
74 101
74 159
74 181
74 221
74 227
74 292
74 315
75 103
75 124
75 154
75 173
75 183
75 222
75 228
75 252
75 273
75 293
75 316
76 97
76 104
76 148
76 155
76 161
76 174
76 211
76 223
76 254
76 257
76 274
76 275
76 291
76 294
76 304
76 305
77 98
77 131
77 149
77 162
77 176
77 212
77 224
77 241
77 276
77 292
77 317
78 100
78 156
78 178
78 213
78 225
78 293
78 318
79 88
79 118
79 146
79 186
79 230
79 275
79 296
79 308
80 85
80 115
80 145
80 185
80 229
80 270
80 297
80 309
81 92
81 110
81 142
81 190
81 232
81 267
81 300
81 312
82 89
82 119
82 147
82 189
82 231
82 274
82 301
82 313
83 96
83 114
83 144
83 194
83 234
83 271
83 304
83 316
84 93
84 111
84 143
84 193
84 233
84 266
84 305
84 317
85 118
85 126
85 201
85 209
85 284
85 294
85 296
85 319
86 113
86 128
86 202
86 210
86 286
86 295
86 325
87 120
87 135
87 199
87 203
87 283
87 298
87 326
88 115
88 125
88 200
88 204
88 285
88 287
88 297
88 320
89 110
89 130
89 201
89 205
89 286
89 288
89 300
89 321
90 117
90 132
90 202
90 206
90 290
90 299
90 327
91 112
91 127
91 203
91 207
91 287
91 302
91 328
92 119
92 129
92 204
92 208
92 289
92 291
92 301
92 322
93 114
93 134
93 205
93 209
93 290
93 292
93 304
93 323
94 109
94 124
94 206
94 210
94 294
94 303
94 329
95 116
95 131
95 199
95 207
95 291
95 306
95 330
96 111
96 133
96 200
96 208
96 283
96 293
96 305
96 324
97 122
97 166
97 181
97 257
97 307
97 333
98 168
98 182
98 241
98 309
98 319
98 326
98 334
99 169
99 183
99 246
99 308
99 320
99 325
99 334
100 121
100 161
100 170
100 248
100 310
100 335
101 123
101 165
101 174
101 245
101 311
101 339
102 166
102 176
102 247
102 313
102 321
102 328
102 340
103 167
103 177
103 252
103 312
103 322
103 327
103 340
104 122
104 169
104 178
104 254
104 314
104 341
105 121
105 173
105 182
105 251
105 315
105 345
106 160
106 174
106 253
106 317
106 323
106 330
106 346
107 161
107 175
107 258
107 316
107 324
107 329
107 346
108 123
108 162
108 177
108 242
108 318
108 347
109 112
109 141
109 186
109 215
110 119
110 138
110 195
110 228
110 325
111 114
111 136
111 188
111 218
111 326
112 139
112 185
112 213
113 116
113 137
113 190
113 221
114 140
114 187
114 216
114 327
115 118
115 138
115 192
115 224
115 328
116 141
116 189
116 219
117 120
117 139
117 194
117 227
118 136
118 191
118 222
118 329
119 140
119 184
119 212
119 330
120 137
120 193
120 225
121 332
121 348
122 336
122 338
123 342
123 344
124 150
124 234
124 277
124 294
124 349
125 158
125 240
125 285
125 325
125 349
125 355
126 153
126 237
126 284
126 326
126 350
126 356
127 149
127 231
127 278
127 287
127 350
128 154
128 230
128 279
128 286
128 351
129 150
129 236
129 289
129 327
129 351
129 357
130 157
130 239
130 288
130 328
130 352
130 358
131 153
131 233
131 280
131 291
131 352
132 158
132 232
132 281
132 290
132 353
133 154
133 238
133 293
133 329
133 353
133 359
134 149
134 235
134 292
134 330
134 354
134 360
135 157
135 229
135 282
135 283
135 354
136 196
136 198
136 308
136 317
136 319
136 324
138 196
138 197
138 309
138 312
138 320
138 321
140 197
140 198
140 313
140 316
140 322
140 323
142 167
142 182
142 265
142 267
142 355
143 160
143 169
143 266
143 268
143 356
144 166
144 175
144 269
144 271
144 357
145 168
145 177
145 270
145 272
145 358
146 174
146 183
146 273
146 275
146 359
147 161
147 176
147 274
147 276
147 360
148 186
148 194
148 244
148 275
148 355
148 361
149 187
149 195
149 257
149 276
149 326
150 184
150 188
150 248
150 269
150 325
151 185
151 189
151 243
151 270
151 356
151 362
152 186
152 190
152 250
152 267
152 357
152 363
153 187
153 191
153 245
153 268
153 328
154 188
154 192
154 254
154 273
154 327
155 189
155 193
155 249
155 274
155 358
155 364
156 190
156 194
156 256
156 271
156 359
156 365
157 191
157 195
157 251
157 272
157 330
158 184
158 192
158 242
158 265
158 329
159 185
159 193
159 255
159 266
159 360
159 366
160 196
160 209
160 284
160 317
160 354
160 384
161 164
161 180
161 201
161 260
161 294
161 333
161 348
161 366
161 367
161 373
161 374
161 385
162 165
162 181
162 240
162 285
162 318
162 331
162 334
162 361
162 374
163 166
163 182
163 210
163 236
163 259
163 286
163 307
163 309
163 332
163 335
163 349
163 368
163 386
164 169
164 203
164 235
164 261
164 283
164 308
164 310
164 333
164 336
164 350
164 368
164 387
165 170
165 237
165 284
165 311
165 334
165 337
165 362
165 375
166 171
166 200
166 260
166 287
166 335
166 338
166 363
166 369
166 375
166 376
166 388
167 196
167 204
167 285
167 312
167 351
167 377
168 197
168 201
168 288
168 309
168 350
168 376
169 172
169 205
169 262
169 286
169 336
169 339
169 362
169 369
169 377
169 378
169 389
170 173
170 236
170 289
170 310
170 337
170 340
170 363
170 378
171 174
171 202
171 238
171 261
171 290
171 311
171 313
171 338
171 341
171 351
171 370
171 390
172 177
172 207
172 237
172 263
172 287
172 312
172 314
172 339
172 342
172 352
172 370
172 391
173 178
173 239
173 288
173 315
173 340
173 343
173 364
173 379
174 179
174 204
174 262
174 291
174 341
174 344
174 365
174 371
174 379
174 380
174 392
175 197
175 208
175 289
175 316
175 353
175 381
176 198
176 205
176 292
176 313
176 352
176 380
177 180
177 209
177 264
177 290
177 342
177 345
177 364
177 371
177 381
177 382
177 393
178 181
178 238
178 293
178 314
178 343
178 346
178 365
178 382
179 182
179 206
179 240
179 263
179 294
179 315
179 317
179 344
179 347
179 353
179 372
179 394
180 199
180 239
180 259
180 291
180 316
180 318
180 345
180 348
180 354
180 372
180 395
181 235
181 292
181 307
181 331
181 346
181 366
181 383
182 208
182 264
182 283
182 332
182 347
182 361
182 367
182 383
182 384
182 396
183 198
183 200
183 293
183 308
183 349
183 373
184 230
184 275
184 306
184 325
184 373
185 276
185 297
185 374
186 269
186 296
186 375
187 229
187 270
187 299
187 326
187 376
188 232
188 267
188 298
188 327
188 377
189 268
189 301
189 378
190 273
190 300
190 379
191 231
191 274
191 303
191 328
191 380
192 234
192 271
192 302
192 329
192 381
193 272
193 305
193 382
194 265
194 304
194 383
195 233
195 266
195 295
195 330
195 384
199 214
199 227
199 354
200 211
200 216
200 265
200 267
200 320
200 349
201 212
201 217
201 266
201 268
201 319
201 350
202 214
202 219
202 351
203 215
203 220
203 350
204 217
204 222
204 269
204 271
204 322
204 351
205 218
205 223
205 270
205 272
205 321
205 352
206 220
206 225
206 353
207 221
207 226
207 352
208 223
208 228
208 273
208 275
208 324
208 353
209 211
209 224
209 274
209 276
209 323
209 354
210 213
210 226
210 349
211 243
211 256
211 296
211 305
211 374
211 383
212 348
212 384
213 258
213 335
213 374
214 242
214 245
214 295
214 298
215 247
215 333
215 375
216 338
216 377
217 244
217 249
217 297
217 300
217 375
217 378
218 336
218 376
219 246
219 341
219 378
220 248
220 251
220 299
220 302
221 253
221 339
221 379
222 344
222 381
223 250
223 255
223 301
223 304
223 379
223 382
224 342
224 380
225 252
225 347
225 382
226 254
226 257
226 303
226 306
227 241
227 345
227 383
228 332
228 373
229 259
229 309
230 261
230 308
231 261
231 313
232 263
232 312
233 263
233 317
234 259
234 316
235 278
235 306
235 366
236 277
236 299
236 363
237 280
237 298
237 362
238 279
238 303
238 365
239 282
239 302
239 364
240 281
240 295
240 361
241 284
241 317
241 383
242 277
242 294
242 396
243 286
243 307
243 356
243 374
243 387
244 283
244 310
244 355
244 375
244 386
245 278
245 287
245 389
246 285
246 312
246 378
247 288
247 309
247 375
248 279
248 286
248 388
249 290
249 311
249 358
249 378
249 391
250 287
250 314
250 357
250 379
250 390
251 280
251 291
251 393
252 289
252 316
252 382
253 292
253 313
253 379
254 281
254 290
254 392
255 294
255 315
255 360
255 382
255 395
256 291
256 318
256 359
256 383
256 394
257 282
257 283
257 385
258 293
258 308
258 374
265 324
265 355
265 383
266 278
266 366
266 384
267 277
267 363
267 377
268 321
268 356
268 378
269 320
269 357
269 375
270 280
270 362
270 376
271 279
271 365
271 381
272 323
272 358
272 382
273 322
273 359
273 379
274 282
274 364
274 380
275 281
275 361
275 373
276 319
276 360
276 374
277 349
278 350
279 351
280 352
281 353
282 354
283 318
283 326
283 367
283 368
284 307
284 309
284 356
285 308
285 310
285 355
286 311
286 325
286 368
286 369
287 310
287 328
287 369
287 370
288 311
288 313
288 358
289 312
289 314
289 357
290 315
290 327
290 370
290 371
291 314
291 330
291 371
291 372
292 315
292 317
292 360
293 316
293 318
293 359
294 307
294 329
294 367
294 372
295 306
295 325
296 297
296 361
297 362
298 299
298 326
299 327
300 301
300 363
301 364
302 303
302 328
303 329
304 305
304 365
305 366
306 330
307 333
307 383
307 397
308 331
308 373
309 337
309 376
310 335
310 378
310 398
311 339
311 375
311 398
312 337
312 377
313 343
313 380
314 341
314 382
314 399
315 345
315 379
315 399
316 343
316 381
317 331
317 384
318 347
318 374
318 397
319 326
319 367
320 325
320 369
321 328
321 369
322 327
322 371
323 330
323 371
324 329
324 367
325 349
326 350
327 351
328 352
329 353
330 354
332 348
332 386
332 396
332 397
333 335
333 385
333 387
335 386
335 388
336 338
336 387
336 389
336 398
338 388
338 390
338 398
339 341
339 389
339 391
341 390
341 392
342 344
342 391
342 393
342 399
344 392
344 394
344 399
345 347
345 393
345 395
347 394
347 396
348 385
348 395
348 397
355 361
356 362
357 363
358 364
359 365
360 366
361 383
362 378
363 375
364 382
365 379
366 374
374 397
375 398
378 398
379 399
382 399
383 397
