0 163
0 164
0 165
0 166
0 167
0 168
0 169
0 170
0 171
0 172
0 173
0 174
0 175
0 176
0 177
0 178
0 179
0 180
0 181
0 182
0 183
0 184
0 185
0 186
1 130
1 131
1 137
1 142
1 149
1 153
1 161
1 170
1 182
1 189
1 197
1 200
1 210
1 211
1 213
1 229
2 143
2 150
2 154
2 184
2 190
2 198
2 199
2 201
2 212
2 214
3 142
3 151
3 155
3 173
3 187
3 191
3 200
3 202
3 214
3 216
4 132
4 133
4 138
4 143
4 152
4 156
4 160
4 163
4 175
4 188
4 192
4 201
4 203
4 215
4 217
4 230
5 134
5 135
5 138
5 144
5 145
5 153
5 157
5 166
5 178
5 189
5 193
5 202
5 204
5 217
5 219
5 231
6 139
6 146
6 154
6 168
6 190
6 194
6 203
6 205
6 218
6 220
7 144
7 147
7 155
7 181
7 191
7 195
7 204
7 206
7 220
7 222
8 124
8 125
8 136
8 139
8 148
8 156
8 162
8 171
8 183
8 192
8 196
8 205
8 207
8 221
8 223
8 232
9 126
9 127
9 136
9 140
9 145
9 149
9 159
9 174
9 186
9 193
9 197
9 206
9 208
9 223
9 225
9 233
10 141
10 146
10 150
10 176
10 194
10 198
10 207
10 209
10 224
10 226
11 140
11 147
11 151
11 165
11 187
11 195
11 208
11 210
11 226
11 228
12 128
12 129
12 137
12 141
12 148
12 152
12 158
12 167
12 179
12 188
12 196
12 199
12 209
12 211
12 227
12 234
13 105
13 106
13 119
13 120
13 137
13 138
13 199
13 202
13 229
13 230
14 94
14 111
14 112
14 123
14 136
14 138
14 203
14 206
14 231
14 232
15 99
15 100
15 115
15 116
15 136
15 137
15 207
15 210
15 233
15 234
16 88
16 105
16 132
16 170
16 183
16 215
17 90
17 103
17 107
17 129
17 162
17 171
17 185
17 211
17 216
17 236
17 242
17 243
18 89
18 104
18 108
18 134
18 159
18 172
18 186
18 212
18 217
18 235
18 244
18 245
19 91
19 106
19 131
19 163
19 174
19 213
20 92
20 111
20 124
20 167
20 178
20 221
21 82
21 95
21 109
21 133
21 158
21 169
21 179
21 217
21 222
21 238
21 248
21 249
22 93
22 96
22 110
22 126
22 161
22 170
22 180
22 218
22 223
22 237
22 250
22 251
23 83
23 94
23 135
23 171
23 182
23 219
24 84
24 99
24 128
24 175
24 186
24 227
25 86
25 97
25 101
25 125
25 160
25 163
25 177
25 223
25 228
25 240
25 254
25 255
26 85
26 98
26 102
26 130
26 157
26 164
26 178
26 211
26 224
26 239
26 256
26 257
27 87
27 100
27 127
27 166
27 179
27 225
28 87
28 90
28 117
28 120
28 190
28 197
28 243
29 89
29 92
29 119
29 122
29 187
29 192
29 244
30 82
30 91
30 112
30 121
30 189
30 194
30 249
31 84
31 93
31 114
31 123
31 191
31 196
31 250
32 83
32 86
32 113
32 116
32 193
32 198
32 255
33 85
33 88
33 115
33 118
33 188
33 195
33 256
34 67
34 68
34 86
34 90
34 132
34 148
34 154
34 201
34 209
34 240
34 242
34 277
35 69
35 70
35 79
35 87
35 91
35 134
35 149
35 155
35 202
35 210
35 241
35 265
35 267
36 70
36 71
36 80
36 88
36 92
36 129
36 150
36 156
36 199
36 203
36 246
36 266
36 268
37 72
37 73
37 89
37 93
37 131
37 145
37 151
37 200
37 204
37 237
37 245
37 278
38 73
38 74
38 82
38 90
38 124
38 146
38 152
38 201
38 205
38 236
38 248
38 279
39 58
39 75
39 81
39 83
39 91
39 126
39 147
39 153
39 202
39 206
39 247
39 269
39 271
40 58
40 59
40 76
40 84
40 92
40 133
40 148
40 154
40 203
40 207
40 252
40 270
40 272
41 60
41 61
41 85
41 93
41 135
41 149
41 155
41 204
41 208
41 239
41 251
41 280
42 61
42 62
42 82
42 86
42 128
42 150
42 156
42 205
42 209
42 238
42 254
42 281
43 63
43 64
43 77
43 83
43 87
43 130
43 145
43 151
43 206
43 210
43 253
43 273
43 275
44 64
44 65
44 78
44 84
44 88
44 125
44 146
44 152
44 199
44 207
44 258
44 274
44 276
45 66
45 67
45 85
45 89
45 127
45 147
45 153
45 200
45 208
45 235
45 257
45 282
46 66
46 69
46 100
46 107
46 169
46 182
46 189
46 243
46 265
46 282
46 283
47 67
47 70
47 78
47 101
47 108
47 170
47 184
47 190
47 197
47 245
47 258
47 259
47 260
47 266
47 284
48 70
48 73
48 81
48 103
48 110
48 163
48 173
48 187
48 192
48 242
48 247
48 260
48 261
48 267
48 285
49 71
49 74
49 104
49 111
49 164
49 175
49 188
49 244
49 268
49 279
49 286
50 72
50 75
50 95
50 106
50 166
50 177
50 193
50 249
50 269
50 278
50 287
51 58
51 73
51 80
51 96
51 107
51 168
51 178
51 189
51 194
51 246
51 251
51 261
51 262
51 270
51 288
52 58
52 61
52 77
52 98
52 109
52 171
52 181
52 191
52 196
52 248
52 253
52 262
52 263
52 271
52 289
53 59
53 62
53 99
53 110
53 172
53 183
53 192
53 250
53 272
53 281
53 290
54 60
54 63
54 94
54 101
54 174
54 185
54 197
54 255
54 273
54 280
54 291
55 61
55 64
55 76
55 95
55 102
55 176
55 186
55 193
55 198
55 252
55 257
55 263
55 264
55 274
55 292
56 64
56 67
56 79
56 97
56 104
56 165
56 179
56 188
56 195
56 241
56 254
56 259
56 264
56 275
56 293
57 65
57 68
57 98
57 105
57 167
57 180
57 196
57 256
57 276
57 277
57 294
58 64
58 70
58 98
58 107
58 147
58 154
58 168
58 181
58 214
58 226
58 242
58 257
58 265
58 276
58 284
58 293
58 295
58 306
58 307
58 324
59 65
59 71
59 99
59 108
59 133
59 148
59 169
59 183
59 215
59 227
59 244
59 266
59 294
59 307
59 308
60 66
60 72
60 101
60 155
60 185
60 216
60 228
60 283
60 309
61 67
61 73
61 102
61 109
61 128
61 135
61 149
61 156
61 171
61 186
61 211
61 217
61 241
61 246
61 284
61 285
61 296
61 297
61 309
61 310
62 68
62 74
62 110
62 150
62 172
62 212
62 218
62 286
62 310
63 69
63 75
63 94
63 103
63 130
63 145
63 164
63 174
63 213
63 219
63 243
63 267
63 287
63 311
63 312
64 70
64 95
64 104
64 146
64 151
64 165
64 176
64 214
64 220
64 245
64 248
64 268
64 269
64 285
64 288
64 298
64 299
64 312
64 313
65 71
65 96
65 105
65 125
65 152
65 167
65 177
65 215
65 221
65 250
65 270
65 286
65 313
65 314
66 72
66 107
66 147
66 169
66 216
66 222
66 287
66 315
67 73
67 97
67 108
67 127
67 132
67 148
67 153
67 170
67 179
67 217
67 223
67 247
67 252
67 288
67 289
67 300
67 301
67 315
67 316
68 74
68 98
68 154
68 180
68 218
68 224
68 290
68 316
69 75
69 100
69 109
69 134
69 149
69 172
69 182
69 219
69 225
69 249
69 271
69 291
69 317
69 318
70 101
70 110
70 150
70 155
70 173
70 184
70 220
70 226
70 251
70 254
70 272
70 273
70 289
70 292
70 302
70 303
70 318
70 319
71 102
71 111
71 129
71 156
71 175
71 185
71 221
71 227
71 256
71 274
71 290
71 319
71 320
72 95
72 151
72 177
72 222
72 228
72 291
72 321
73 96
73 103
73 124
73 131
73 145
73 152
73 163
73 178
73 211
73 223
73 253
73 258
73 292
73 293
73 304
73 305
73 321
73 322
74 104
74 146
74 164
74 212
74 224
74 294
74 322
75 97
75 106
75 126
75 153
75 166
75 180
75 213
75 225
75 255
75 275
75 283
75 323
75 324
76 92
76 116
76 141
76 198
76 234
76 268
76 295
76 308
77 87
77 123
77 144
77 191
77 231
77 265
77 298
77 311
78 84
78 120
78 143
78 190
78 230
78 272
78 299
78 314
79 91
79 115
79 140
79 195
79 233
79 269
79 302
79 317
80 88
80 112
80 139
80 194
80 232
80 276
80 303
80 320
81 83
81 119
81 142
81 187
81 229
81 273
81 306
81 323
82 121
82 133
82 158
82 201
82 209
82 293
82 296
82 331
83 116
83 135
83 202
83 210
83 283
83 285
83 295
83 325
84 123
84 128
84 199
84 203
84 284
84 286
84 298
84 326
85 118
85 130
85 157
85 200
85 204
85 288
85 297
85 332
86 113
86 125
86 160
86 201
86 205
86 285
86 300
86 333
87 120
87 127
87 202
87 206
87 287
87 289
87 299
87 327
88 115
88 132
88 203
88 207
88 288
88 290
88 302
88 328
89 122
89 134
89 159
89 204
89 208
89 292
89 301
89 334
90 117
90 129
90 162
90 205
90 209
90 289
90 304
90 335
91 112
91 131
91 206
91 210
91 291
91 293
91 303
91 329
92 119
92 124
92 199
92 207
92 292
92 294
92 306
92 330
93 114
93 126
93 161
93 200
93 208
93 284
93 305
93 336
94 168
94 182
94 243
94 323
94 325
94 336
94 337
95 169
95 184
95 245
95 309
95 324
95 338
96 170
96 185
96 258
96 307
96 310
96 339
97 163
97 172
97 247
97 309
97 312
97 341
98 164
98 173
98 242
98 310
98 313
98 342
99 165
99 175
99 244
99 314
99 326
99 333
99 343
100 166
100 176
100 249
100 311
100 327
100 332
100 343
101 168
101 177
101 251
101 312
101 315
101 344
102 169
102 178
102 246
102 313
102 316
102 345
103 171
103 180
103 253
103 315
103 318
103 347
104 172
104 181
104 248
104 316
104 319
104 348
105 173
105 183
105 250
105 320
105 328
105 335
105 349
106 174
106 184
106 255
106 317
106 329
106 334
106 349
107 176
107 185
107 257
107 318
107 321
107 350
108 177
108 186
108 252
108 319
108 322
108 351
109 164
109 179
109 241
109 321
109 324
109 353
110 165
110 180
110 254
110 307
110 322
110 354
111 167
111 181
111 256
111 308
111 330
111 331
111 337
112 115
112 138
112 189
112 215
112 331
113 122
113 198
113 228
114 117
114 191
114 218
115 137
115 188
115 213
115 332
116 119
116 136
116 193
116 221
116 333
117 190
117 216
118 121
118 195
118 224
119 138
119 192
119 219
119 334
120 123
120 137
120 197
120 227
120 335
121 194
121 222
122 187
122 212
123 136
123 196
123 225
123 336
124 148
124 162
124 236
124 294
124 331
124 355
124 361
125 156
125 230
125 277
125 285
125 355
126 149
126 229
126 278
126 284
126 356
127 145
127 159
127 235
127 287
127 332
127 356
127 362
128 152
128 158
128 238
128 286
128 333
128 357
128 363
129 148
129 232
129 279
129 289
129 357
130 153
130 231
130 280
130 288
130 358
131 149
131 161
131 237
131 291
131 334
131 358
131 364
132 156
132 160
132 240
132 290
132 335
132 359
132 365
133 152
133 234
133 281
133 293
133 359
134 145
134 233
134 282
134 292
134 360
135 153
135 157
135 239
135 283
135 336
135 360
135 366
136 308
136 311
136 325
136 326
137 314
137 317
137 327
137 328
138 320
138 323
138 329
138 330
139 168
139 183
139 266
139 276
139 361
140 165
140 174
140 267
140 269
140 362
141 167
141 176
141 268
141 270
141 363
142 173
142 182
142 271
142 273
142 364
143 175
143 184
143 272
143 274
143 365
144 166
144 181
144 265
144 275
144 366
145 189
145 197
145 245
145 267
145 336
146 190
146 198
146 258
146 268
146 361
146 367
147 187
147 191
147 247
147 265
147 362
147 368
148 188
148 192
148 242
148 266
148 333
149 189
149 193
149 251
149 271
149 332
150 190
150 194
150 246
150 272
150 363
150 369
151 191
151 195
151 253
151 269
151 364
151 370
152 192
152 196
152 248
152 270
152 335
153 193
153 197
153 257
153 275
153 334
154 194
154 198
154 252
154 276
154 365
154 371
155 187
155 195
155 241
155 273
155 366
155 372
156 188
156 196
156 254
156 274
156 331
157 282
157 297
158 279
158 296
159 278
159 301
160 281
160 300
161 280
161 305
162 277
162 304
163 168
163 184
163 201
163 240
163 260
163 293
163 309
163 323
163 339
163 354
163 355
163 385
164 169
164 185
164 236
164 294
164 310
164 324
164 337
164 340
164 367
164 373
165 170
165 186
165 210
165 259
165 285
165 307
165 338
165 341
165 368
165 373
165 374
165 386
166 202
166 283
166 311
166 356
166 375
167 199
167 286
167 308
167 355
167 374
168 171
168 203
168 261
168 284
168 312
168 339
168 342
168 367
168 375
168 376
168 387
169 172
169 235
169 287
169 309
169 313
169 340
169 343
169 368
169 376
170 173
170 200
170 237
170 260
170 288
170 310
170 314
170 341
170 344
170 356
170 388
171 176
171 205
171 236
171 262
171 285
171 311
171 315
171 342
171 345
171 357
171 389
172 177
172 238
172 286
172 312
172 316
172 343
172 346
172 369
172 377
173 178
173 202
173 261
173 289
173 313
173 344
173 347
173 370
173 377
173 378
173 390
174 206
174 287
174 317
174 358
174 379
175 203
175 290
175 314
175 357
175 378
176 179
176 207
176 263
176 288
176 318
176 345
176 348
176 369
176 379
176 380
176 391
177 180
177 237
177 291
177 315
177 319
177 346
177 349
177 370
177 380
178 181
178 204
178 239
178 262
178 292
178 316
178 320
178 347
178 350
178 358
178 392
179 184
179 209
179 238
179 264
179 289
179 317
179 321
179 348
179 351
179 359
179 393
180 185
180 240
180 290
180 318
180 322
180 349
180 352
180 371
180 381
181 186
181 206
181 263
181 293
181 319
181 350
181 353
181 372
181 381
181 382
181 394
182 210
182 291
182 323
182 360
182 383
183 207
183 294
183 320
183 359
183 382
184 199
184 259
184 292
184 324
184 351
184 354
184 371
184 383
184 384
184 395
185 239
185 283
185 307
185 321
185 337
185 352
185 372
185 384
186 208
186 235
186 264
186 284
186 308
186 322
186 338
186 353
186 360
186 396
187 267
187 306
187 373
187 397
188 234
188 268
188 297
188 331
188 374
189 231
189 265
189 296
189 332
189 375
190 266
190 299
190 376
190 398
191 271
191 298
191 377
191 399
192 230
192 272
192 301
192 333
192 378
193 233
193 269
193 300
193 334
193 379
194 270
194 303
194 380
194 400
195 275
195 302
195 381
195 401
196 232
196 276
196 305
196 335
196 382
197 229
197 273
197 304
197 336
197 383
198 274
198 295
198 384
198 402
199 214
199 227
199 266
199 276
199 330
199 355
199 402
200 211
200 216
200 356
201 212
201 217
201 355
202 214
202 219
202 267
202 269
202 327
202 356
202 399
203 215
203 220
203 268
203 270
203 326
203 357
203 398
204 217
204 222
204 358
205 218
205 223
205 357
206 220
206 225
206 271
206 273
206 329
206 358
206 401
207 221
207 226
207 272
207 274
207 328
207 359
207 400
208 223
208 228
208 360
209 211
209 224
209 359
210 213
210 226
210 265
210 275
210 325
210 360
210 397
211 242
211 257
211 296
211 305
212 244
212 354
212 373
213 341
213 375
214 241
214 246
214 295
214 298
214 373
214 376
215 339
215 374
216 243
216 344
216 376
217 245
217 248
217 297
217 300
218 250
218 342
218 377
219 347
219 379
220 247
220 252
220 299
220 302
220 377
220 380
221 345
221 378
222 249
222 350
222 380
223 251
223 254
223 301
223 304
224 256
224 348
224 381
225 353
225 383
226 253
226 258
226 303
226 306
226 381
226 384
227 351
227 382
228 255
228 338
228 384
229 260
229 323
230 260
230 314
231 262
231 311
232 262
232 320
233 264
233 317
234 264
234 308
235 282
235 297
235 368
236 279
236 296
236 367
237 278
237 301
237 370
238 281
238 300
238 369
239 280
239 305
239 372
240 277
240 304
240 371
241 293
241 309
241 366
241 373
241 396
242 277
242 285
242 307
242 387
243 283
243 311
243 376
244 286
244 308
244 373
245 278
245 284
245 312
245 386
246 288
246 310
246 363
246 376
246 389
247 285
247 315
247 362
247 377
247 388
248 279
248 289
248 313
248 391
249 287
249 317
249 380
250 290
250 314
250 377
251 280
251 288
251 318
251 390
252 292
252 316
252 365
252 380
252 393
253 289
253 321
253 364
253 381
253 392
254 281
254 293
254 319
254 395
255 291
255 323
255 384
256 294
256 320
256 381
257 282
257 292
257 324
257 394
258 284
258 322
258 361
258 384
258 385
265 282
265 368
265 375
265 397
266 326
266 361
266 376
267 325
267 362
267 373
268 279
268 367
268 374
268 398
269 278
269 370
269 379
269 399
270 328
270 363
270 380
271 327
271 364
271 377
272 281
272 369
272 378
272 400
273 280
273 372
273 383
273 401
274 330
274 365
274 384
275 329
275 366
275 381
276 277
276 371
276 382
276 402
277 355
278 356
279 357
280 358
281 359
282 360
283 309
283 323
283 366
284 310
284 324
284 336
285 309
285 313
285 333
286 310
286 314
286 363
287 311
287 315
287 362
288 312
288 316
288 332
289 315
289 319
289 335
290 316
290 320
290 365
291 317
291 321
291 364
292 318
292 322
292 334
293 307
293 321
293 331
294 308
294 322
294 361
295 306
295 367
295 402
296 297
296 331
297 332
298 299
298 368
298 399
299 369
299 398
300 301
300 333
301 334
302 303
302 370
302 401
303 371
303 400
304 305
304 335
305 336
306 372
306 397
307 339
307 373
308 340
308 374
309 338
309 376
310 342
310 373
311 340
311 375
312 341
312 376
313 345
313 377
314 346
314 378
315 344
315 380
316 348
316 377
317 346
317 379
318 347
318 380
319 351
319 381
320 352
320 382
321 350
321 384
322 354
322 381
323 352
323 383
324 353
324 384
325 336
326 333
327 332
328 335
329 334
330 331
331 355
332 356
333 357
334 358
335 359
336 360
338 354
338 386
338 396
339 341
339 385
339 387
341 386
341 388
342 344
342 387
342 389
344 388
344 390
345 347
345 389
345 391
347 390
347 392
348 350
348 391
348 393
350 392
350 394
351 353
351 393
351 395
353 394
353 396
354 385
354 395
361 367
361 402
362 368
362 399
363 369
363 398
364 370
364 401
365 371
365 400
366 372
366 397
367 376
368 373
369 380
370 377
371 384
372 381
373 397
376 398
377 399
380 400
381 401
384 402
