0 163
0 164
0 165
0 166
0 167
0 168
0 169
0 170
0 171
0 172
0 173
0 174
0 175
0 176
0 177
0 178
0 179
0 180
0 181
0 182
0 183
0 184
0 185
0 186
1 130
1 131
1 137
1 142
1 149
1 153
1 161
1 170
1 182
1 189
1 197
1 200
1 210
1 211
1 213
1 229
2 143
2 150
2 154
2 184
2 190
2 198
2 199
2 201
2 212
2 214
3 142
3 151
3 155
3 173
3 187
3 191
3 200
3 202
3 214
3 216
4 132
4 133
4 138
4 143
4 152
4 156
4 160
4 163
4 175
4 188
4 192
4 201
4 203
4 215
4 217
4 230
5 134
5 135
5 138
5 144
5 145
5 153
5 157
5 166
5 178
5 189
5 193
5 202
5 204
5 217
5 219
5 231
6 139
6 146
6 154
6 168
6 190
6 194
6 203
6 205
6 218
6 220
7 144
7 147
7 155
7 181
7 191
7 195
7 204
7 206
7 220
7 222
8 124
8 125
8 136
8 139
8 148
8 156
8 162
8 171
8 183
8 192
8 196
8 205
8 207
8 221
8 223
8 232
9 126
9 127
9 136
9 140
9 145
9 149
9 159
9 174
9 186
9 193
9 197
9 206
9 208
9 223
9 225
9 233
10 141
10 146
10 150
10 176
10 194
10 198
10 207
10 209
10 224
10 226
11 140
11 147
11 151
11 165
11 187
11 195
11 208
11 210
11 226
11 228
12 128
12 129
12 137
12 141
12 148
12 152
12 158
12 167
12 179
12 188
12 196
12 199
12 209
12 211
12 227
12 234
13 105
13 106
13 119
13 120
13 137
13 138
13 199
13 202
13 229
13 230
14 94
14 111
14 112
14 123
14 136
14 138
14 203
14 206
14 231
14 232
15 99
15 100
15 115
15 116
15 136
15 137
15 207
15 210
15 233
15 234
16 88
16 105
16 132
16 170
16 183
16 215
17 90
17 103
17 107
17 129
17 162
17 171
17 185
17 211
17 216
17 236
17 242
17 243
18 89
18 104
18 108
18 134
18 159
18 172
18 186
18 212
18 217
18 235
18 244
18 245
19 91
19 106
19 131
19 163
19 174
19 213
20 92
20 111
20 124
20 167
20 178
20 221
21 82
21 95
21 109
21 133
21 158
21 169
21 179
21 217
21 222
21 238
21 248
21 249
22 93
22 96
22 110
22 126
22 161
22 170
22 180
22 218
22 223
22 237
22 250
22 251
23 83
23 94
23 135
23 171
23 182
23 219
24 84
24 99
24 128
24 175
24 186
24 227
25 86
25 97
25 101
25 125
25 160
25 163
25 177
25 223
25 228
25 240
25 254
25 255
26 85
26 98
26 102
26 130
26 157
26 164
26 178
26 211
26 224
26 239
26 256
26 257
27 87
27 100
27 127
27 166
27 179
27 225
28 87
28 90
28 117
28 120
28 190
28 197
28 243
29 89
29 92
29 119
29 122
29 187
29 192
29 244
30 82
30 91
30 112
30 121
30 189
30 194
30 249
31 84
31 93
31 114
31 123
31 191
31 196
31 250
32 83
32 86
32 113
32 116
32 193
32 198
32 255
33 85
33 88
33 115
33 118
33 188
33 195
33 256
34 67
34 68
34 86
34 90
34 132
34 148
34 154
34 201
34 209
34 240
34 242
34 274
35 69
35 70
35 79
35 87
35 91
35 134
35 149
35 155
35 202
35 210
35 241
35 262
35 264
36 70
36 71
36 80
36 88
36 92
36 129
36 150
36 156
36 199
36 203
36 246
36 263
36 265
37 72
37 73
37 89
37 93
37 131
37 145
37 151
37 200
37 204
37 237
37 245
37 275
38 73
38 74
38 82
38 90
38 124
38 146
38 152
38 201
38 205
38 236
38 248
38 276
39 58
39 75
39 81
39 83
39 91
39 126
39 147
39 153
39 202
39 206
39 247
39 266
39 268
40 58
40 59
40 76
40 84
40 92
40 133
40 148
40 154
40 203
40 207
40 252
40 267
40 269
41 60
41 61
41 85
41 93
41 135
41 149
41 155
41 204
41 208
41 239
41 251
41 277
42 61
42 62
42 82
42 86
42 128
42 150
42 156
42 205
42 209
42 238
42 254
42 278
43 63
43 64
43 77
43 83
43 87
43 130
43 145
43 151
43 206
43 210
43 253
43 270
43 272
44 64
44 65
44 78
44 84
44 88
44 125
44 146
44 152
44 199
44 207
44 258
44 271
44 273
45 66
45 67
45 85
45 89
45 127
45 147
45 153
45 200
45 208
45 235
45 257
45 279
46 66
46 69
46 100
46 107
46 169
46 182
46 189
46 243
46 262
46 279
46 280
47 67
47 70
47 78
47 101
47 108
47 170
47 184
47 190
47 197
47 245
47 258
47 259
47 263
47 281
48 70
48 73
48 81
48 103
48 110
48 163
48 173
48 187
48 192
48 242
48 247
48 259
48 264
48 282
49 71
49 74
49 104
49 111
49 164
49 175
49 188
49 244
49 265
49 276
49 283
50 72
50 75
50 95
50 106
50 166
50 177
50 193
50 249
50 266
50 275
50 284
51 58
51 73
51 80
51 96
51 107
51 168
51 178
51 189
51 194
51 246
51 251
51 260
51 267
51 285
52 58
52 61
52 77
52 98
52 109
52 171
52 181
52 191
52 196
52 248
52 253
52 260
52 268
52 286
53 59
53 62
53 99
53 110
53 172
53 183
53 192
53 250
53 269
53 278
53 287
54 60
54 63
54 94
54 101
54 174
54 185
54 197
54 255
54 270
54 277
54 288
55 61
55 64
55 76
55 95
55 102
55 176
55 186
55 193
55 198
55 252
55 257
55 261
55 271
55 289
56 64
56 67
56 79
56 97
56 104
56 165
56 179
56 188
56 195
56 241
56 254
56 261
56 272
56 290
57 65
57 68
57 98
57 105
57 167
57 180
57 196
57 256
57 273
57 274
57 291
58 64
58 70
58 98
58 107
58 147
58 154
58 168
58 181
58 214
58 226
58 242
58 257
58 262
58 273
58 281
58 290
58 292
58 303
58 304
58 321
59 65
59 71
59 99
59 108
59 133
59 148
59 169
59 183
59 215
59 227
59 244
59 263
59 291
59 304
59 305
60 66
60 72
60 101
60 155
60 185
60 216
60 228
60 280
60 306
61 67
61 73
61 102
61 109
61 128
61 135
61 149
61 156
61 171
61 186
61 211
61 217
61 241
61 246
61 281
61 282
61 293
61 294
61 306
61 307
62 68
62 74
62 110
62 150
62 172
62 212
62 218
62 283
62 307
63 69
63 75
63 94
63 103
63 130
63 145
63 164
63 174
63 213
63 219
63 243
63 264
63 284
63 308
63 309
64 70
64 95
64 104
64 146
64 151
64 165
64 176
64 214
64 220
64 245
64 248
64 265
64 266
64 282
64 285
64 295
64 296
64 309
64 310
65 71
65 96
65 105
65 125
65 152
65 167
65 177
65 215
65 221
65 250
65 267
65 283
65 310
65 311
66 72
66 107
66 147
66 169
66 216
66 222
66 284
66 312
67 73
67 97
67 108
67 127
67 132
67 148
67 153
67 170
67 179
67 217
67 223
67 247
67 252
67 285
67 286
67 297
67 298
67 312
67 313
68 74
68 98
68 154
68 180
68 218
68 224
68 287
68 313
69 75
69 100
69 109
69 134
69 149
69 172
69 182
69 219
69 225
69 249
69 268
69 288
69 314
69 315
70 101
70 110
70 150
70 155
70 173
70 184
70 220
70 226
70 251
70 254
70 269
70 270
70 286
70 289
70 299
70 300
70 315
70 316
71 102
71 111
71 129
71 156
71 175
71 185
71 221
71 227
71 256
71 271
71 287
71 316
71 317
72 95
72 151
72 177
72 222
72 228
72 288
72 318
73 96
73 103
73 124
73 131
73 145
73 152
73 163
73 178
73 211
73 223
73 253
73 258
73 289
73 290
73 301
73 302
73 318
73 319
74 104
74 146
74 164
74 212
74 224
74 291
74 319
75 97
75 106
75 126
75 153
75 166
75 180
75 213
75 225
75 255
75 272
75 280
75 320
75 321
76 92
76 116
76 141
76 198
76 234
76 265
76 292
76 305
77 87
77 123
77 144
77 191
77 231
77 262
77 295
77 308
78 84
78 120
78 143
78 190
78 230
78 269
78 296
78 311
79 91
79 115
79 140
79 195
79 233
79 266
79 299
79 314
80 88
80 112
80 139
80 194
80 232
80 273
80 300
80 317
81 83
81 119
81 142
81 187
81 229
81 270
81 303
81 320
82 121
82 133
82 158
82 201
82 209
82 290
82 293
82 328
83 116
83 135
83 202
83 210
83 280
83 282
83 292
83 322
84 123
84 128
84 199
84 203
84 281
84 283
84 295
84 323
85 118
85 130
85 157
85 200
85 204
85 285
85 294
85 329
86 113
86 125
86 160
86 201
86 205
86 282
86 297
86 330
87 120
87 127
87 202
87 206
87 284
87 286
87 296
87 324
88 115
88 132
88 203
88 207
88 285
88 287
88 299
88 325
89 122
89 134
89 159
89 204
89 208
89 289
89 298
89 331
90 117
90 129
90 162
90 205
90 209
90 286
90 301
90 332
91 112
91 131
91 206
91 210
91 288
91 290
91 300
91 326
92 119
92 124
92 199
92 207
92 289
92 291
92 303
92 327
93 114
93 126
93 161
93 200
93 208
93 281
93 302
93 333
94 168
94 182
94 243
94 320
94 322
94 333
94 334
95 169
95 184
95 245
95 306
95 321
95 335
96 170
96 185
96 258
96 304
96 307
96 336
97 163
97 172
97 247
97 306
97 309
97 338
98 164
98 173
98 242
98 307
98 310
98 339
99 165
99 175
99 244
99 311
99 323
99 330
99 340
100 166
100 176
100 249
100 308
100 324
100 329
100 340
101 168
101 177
101 251
101 309
101 312
101 341
102 169
102 178
102 246
102 310
102 313
102 342
103 171
103 180
103 253
103 312
103 315
103 344
104 172
104 181
104 248
104 313
104 316
104 345
105 173
105 183
105 250
105 317
105 325
105 332
105 346
106 174
106 184
106 255
106 314
106 326
106 331
106 346
107 176
107 185
107 257
107 315
107 318
107 347
108 177
108 186
108 252
108 316
108 319
108 348
109 164
109 179
109 241
109 318
109 321
109 350
110 165
110 180
110 254
110 304
110 319
110 351
111 167
111 181
111 256
111 305
111 327
111 328
111 334
112 115
112 138
112 189
112 215
112 328
113 122
113 198
113 228
114 117
114 191
114 218
115 137
115 188
115 213
115 329
116 119
116 136
116 193
116 221
116 330
117 190
117 216
118 121
118 195
118 224
119 138
119 192
119 219
119 331
120 123
120 137
120 197
120 227
120 332
121 194
121 222
122 187
122 212
123 136
123 196
123 225
123 333
124 148
124 162
124 236
124 291
124 328
124 352
124 358
125 156
125 230
125 274
125 282
125 352
126 149
126 229
126 275
126 281
126 353
127 145
127 159
127 235
127 284
127 329
127 353
127 359
128 152
128 158
128 238
128 283
128 330
128 354
128 360
129 148
129 232
129 276
129 286
129 354
130 153
130 231
130 277
130 285
130 355
131 149
131 161
131 237
131 288
131 331
131 355
131 361
132 156
132 160
132 240
132 287
132 332
132 356
132 362
133 152
133 234
133 278
133 290
133 356
134 145
134 233
134 279
134 289
134 357
135 153
135 157
135 239
135 280
135 333
135 357
135 363
136 305
136 308
136 322
136 323
137 311
137 314
137 324
137 325
138 317
138 320
138 326
138 327
139 168
139 183
139 263
139 273
139 358
140 165
140 174
140 264
140 266
140 359
141 167
141 176
141 265
141 267
141 360
142 173
142 182
142 268
142 270
142 361
143 175
143 184
143 269
143 271
143 362
144 166
144 181
144 262
144 272
144 363
145 189
145 197
145 245
145 264
145 333
146 190
146 198
146 258
146 265
146 358
146 364
147 187
147 191
147 247
147 262
147 359
147 365
148 188
148 192
148 242
148 263
148 330
149 189
149 193
149 251
149 268
149 329
150 190
150 194
150 246
150 269
150 360
150 366
151 191
151 195
151 253
151 266
151 361
151 367
152 192
152 196
152 248
152 267
152 332
153 193
153 197
153 257
153 272
153 331
154 194
154 198
154 252
154 273
154 362
154 368
155 187
155 195
155 241
155 270
155 363
155 369
156 188
156 196
156 254
156 271
156 328
157 279
157 294
158 276
158 293
159 275
159 298
160 278
160 297
161 277
161 302
162 274
162 301
163 168
163 184
163 201
163 240
163 259
163 290
163 306
163 320
163 336
163 351
163 352
163 385
164 169
164 185
164 236
164 291
164 307
164 321
164 334
164 337
164 364
164 373
165 170
165 186
165 210
165 282
165 304
165 335
165 338
165 365
165 370
165 373
165 374
165 386
166 202
166 280
166 308
166 353
166 375
167 199
167 283
167 305
167 352
167 374
168 171
168 203
168 281
168 309
168 336
168 339
168 364
168 370
168 375
168 376
168 387
169 172
169 235
169 284
169 306
169 310
169 337
169 340
169 365
169 376
170 173
170 200
170 237
170 259
170 285
170 307
170 311
170 338
170 341
170 353
170 388
171 176
171 205
171 236
171 260
171 282
171 308
171 312
171 339
171 342
171 354
171 389
172 177
172 238
172 283
172 309
172 313
172 340
172 343
172 366
172 377
173 178
173 202
173 286
173 310
173 341
173 344
173 367
173 371
173 377
173 378
173 390
174 206
174 284
174 314
174 355
174 379
175 203
175 287
175 311
175 354
175 378
176 179
176 207
176 285
176 315
176 342
176 345
176 366
176 371
176 379
176 380
176 391
177 180
177 237
177 288
177 312
177 316
177 343
177 346
177 367
177 380
178 181
178 204
178 239
178 260
178 289
178 313
178 317
178 344
178 347
178 355
178 392
179 184
179 209
179 238
179 261
179 286
179 314
179 318
179 345
179 348
179 356
179 393
180 185
180 240
180 287
180 315
180 319
180 346
180 349
180 368
180 381
181 186
181 206
181 290
181 316
181 347
181 350
181 369
181 372
181 381
181 382
181 394
182 210
182 288
182 320
182 357
182 383
183 207
183 291
183 317
183 356
183 382
184 199
184 289
184 321
184 348
184 351
184 368
184 372
184 383
184 384
184 395
185 239
185 280
185 304
185 318
185 334
185 349
185 369
185 384
186 208
186 235
186 261
186 281
186 305
186 319
186 335
186 350
186 357
186 396
187 264
187 303
187 373
187 397
188 234
188 265
188 294
188 328
188 374
189 231
189 262
189 293
189 329
189 375
190 263
190 296
190 376
190 398
191 268
191 295
191 377
191 399
192 230
192 269
192 298
192 330
192 378
193 233
193 266
193 297
193 331
193 379
194 267
194 300
194 380
194 400
195 272
195 299
195 381
195 401
196 232
196 273
196 302
196 332
196 382
197 229
197 270
197 301
197 333
197 383
198 271
198 292
198 384
198 402
199 214
199 227
199 263
199 273
199 327
199 352
199 402
200 211
200 216
200 353
201 212
201 217
201 352
202 214
202 219
202 264
202 266
202 324
202 353
202 399
203 215
203 220
203 265
203 267
203 323
203 354
203 398
204 217
204 222
204 355
205 218
205 223
205 354
206 220
206 225
206 268
206 270
206 326
206 355
206 401
207 221
207 226
207 269
207 271
207 325
207 356
207 400
208 223
208 228
208 357
209 211
209 224
209 356
210 213
210 226
210 262
210 272
210 322
210 357
210 397
211 242
211 257
211 293
211 302
212 244
212 351
212 373
213 338
213 375
214 241
214 246
214 292
214 295
214 373
214 376
215 336
215 374
216 243
216 341
216 376
217 245
217 248
217 294
217 297
218 250
218 339
218 377
219 344
219 379
220 247
220 252
220 296
220 299
220 377
220 380
221 342
221 378
222 249
222 347
222 380
223 251
223 254
223 298
223 301
224 256
224 345
224 381
225 350
225 383
226 253
226 258
226 300
226 303
226 381
226 384
227 348
227 382
228 255
228 335
228 384
229 259
229 320
230 259
230 311
231 260
231 308
232 260
232 317
233 261
233 314
234 261
234 305
235 279
235 294
235 365
236 276
236 293
236 364
237 275
237 298
237 367
238 278
238 297
238 366
239 277
239 302
239 369
240 274
240 301
240 368
241 290
241 306
241 363
241 373
241 396
242 274
242 282
242 304
242 387
243 280
243 308
243 376
244 283
244 305
244 373
245 275
245 281
245 309
245 386
246 285
246 307
246 360
246 376
246 389
247 282
247 312
247 359
247 377
247 388
248 276
248 286
248 310
248 391
249 284
249 314
249 380
250 287
250 311
250 377
251 277
251 285
251 315
251 390
252 289
252 313
252 362
252 380
252 393
253 286
253 318
253 361
253 381
253 392
254 278
254 290
254 316
254 395
255 288
255 320
255 384
256 291
256 317
256 381
257 279
257 289
257 321
257 394
258 281
258 319
258 358
258 384
258 385
262 279
262 365
262 375
262 397
263 323
263 358
263 376
264 322
264 359
264 373
265 276
265 364
265 374
265 398
266 275
266 367
266 379
266 399
267 325
267 360
267 380
268 324
268 361
268 377
269 278
269 366
269 378
269 400
270 277
270 369
270 383
270 401
271 327
271 362
271 384
272 326
272 363
272 381
273 274
273 368
273 382
273 402
274 352
275 353
276 354
277 355
278 356
279 357
280 306
280 320
280 363
281 307
281 321
281 333
281 370
282 306
282 310
282 330
282 370
283 307
283 311
283 360
284 308
284 312
284 359
285 309
285 313
285 329
285 371
286 312
286 316
286 332
286 371
287 313
287 317
287 362
288 314
288 318
288 361
289 315
289 319
289 331
289 372
290 304
290 318
290 328
290 372
291 305
291 319
291 358
292 303
292 364
292 402
293 294
293 328
294 329
295 296
295 365
295 399
296 366
296 398
297 298
297 330
298 331
299 300
299 367
299 401
300 368
300 400
301 302
301 332
302 333
303 369
303 397
304 336
304 373
305 337
305 374
306 335
306 376
307 339
307 373
308 337
308 375
309 338
309 376
310 342
310 377
311 343
311 378
312 341
312 380
313 345
313 377
314 343
314 379
315 344
315 380
316 348
316 381
317 349
317 382
318 347
318 384
319 351
319 381
320 349
320 383
321 350
321 384
322 333
322 370
323 330
323 370
324 329
324 371
325 332
325 371
326 331
326 372
327 328
327 372
328 352
329 353
330 354
331 355
332 356
333 357
335 351
335 386
335 396
336 338
336 385
336 387
338 386
338 388
339 341
339 387
339 389
341 388
341 390
342 344
342 389
342 391
344 390
344 392
345 347
345 391
345 393
347 392
347 394
348 350
348 393
348 395
350 394
350 396
351 385
351 395
358 364
358 402
359 365
359 399
360 366
360 398
361 367
361 401
362 368
362 400
363 369
363 397
364 376
365 373
366 380
367 377
368 384
369 381
373 397
376 398
377 399
380 400
381 401
384 402
