0 166
0 167
0 168
0 169
0 170
0 171
0 172
0 173
0 174
0 175
0 176
0 177
0 178
0 179
0 180
0 181
0 182
0 183
0 184
0 185
0 186
0 187
0 188
0 189
1 130
1 131
1 139
1 145
1 152
1 156
1 164
1 173
1 185
1 192
1 200
1 206
1 216
1 217
1 219
1 235
2 140
2 146
2 153
2 157
2 187
2 193
2 201
2 205
2 207
2 218
2 220
3 140
3 145
3 154
3 158
3 176
3 190
3 194
3 206
3 208
3 220
3 222
4 132
4 133
4 141
4 146
4 155
4 159
4 163
4 166
4 178
4 191
4 195
4 207
4 209
4 221
4 223
4 236
5 134
5 135
5 141
5 147
5 148
5 156
5 160
5 169
5 181
5 192
5 196
5 208
5 210
5 223
5 225
5 237
6 136
6 142
6 149
6 157
6 171
6 193
6 197
6 209
6 211
6 224
6 226
7 136
7 147
7 150
7 158
7 184
7 194
7 198
7 210
7 212
7 226
7 228
8 124
8 125
8 137
8 142
8 151
8 159
8 165
8 174
8 186
8 195
8 199
8 211
8 213
8 227
8 229
8 238
9 126
9 127
9 137
9 143
9 148
9 152
9 162
9 177
9 189
9 196
9 200
9 212
9 214
9 229
9 231
9 239
10 138
10 144
10 149
10 153
10 179
10 197
10 201
10 213
10 215
10 230
10 232
11 138
11 143
11 150
11 154
11 168
11 190
11 198
11 214
11 216
11 232
11 234
12 128
12 129
12 139
12 144
12 151
12 155
12 161
12 170
12 182
12 191
12 199
12 205
12 215
12 217
12 233
12 240
13 114
13 115
13 138
13 140
13 206
13 215
14 104
14 105
14 116
14 117
14 139
14 141
14 202
14 203
14 205
14 208
14 235
14 236
15 118
15 119
15 136
15 140
15 207
15 210
16 97
16 108
16 109
16 120
16 137
16 141
16 203
16 204
16 209
16 212
16 237
16 238
17 110
17 111
17 136
17 138
17 211
17 214
18 100
18 101
18 112
18 113
18 137
18 139
18 202
18 204
18 213
18 216
18 239
18 240
19 91
19 104
19 132
19 173
19 186
19 221
20 93
20 106
20 122
20 129
20 165
20 174
20 188
20 217
20 222
20 242
20 248
20 249
21 92
21 103
21 123
21 134
21 162
21 175
21 189
21 218
21 223
21 241
21 250
21 251
22 94
22 105
22 131
22 166
22 177
22 219
23 95
23 108
23 124
23 170
23 181
23 227
24 85
24 98
24 123
24 133
24 161
24 172
24 182
24 223
24 228
24 244
24 254
24 255
25 96
25 107
25 121
25 126
25 164
25 173
25 183
25 224
25 229
25 243
25 256
25 257
26 86
26 97
26 135
26 174
26 185
26 225
27 87
27 100
27 128
27 178
27 189
27 233
28 89
28 102
28 121
28 125
28 163
28 166
28 180
28 229
28 234
28 246
28 260
28 261
29 88
29 99
29 122
29 130
29 160
29 167
29 181
29 217
29 230
29 245
29 262
29 263
30 90
30 101
30 127
30 169
30 182
30 231
31 90
31 93
31 114
31 117
31 193
31 200
31 249
32 92
32 95
32 116
32 119
32 190
32 195
32 250
33 85
33 94
33 109
33 118
33 192
33 197
33 255
34 87
34 96
34 111
34 120
34 194
34 199
34 256
35 86
35 89
35 110
35 113
35 196
35 201
35 261
36 88
36 91
36 112
36 115
36 191
36 198
36 262
37 70
37 71
37 89
37 93
37 132
37 151
37 157
37 207
37 215
37 246
37 248
37 280
38 72
38 73
38 82
38 90
38 94
38 134
38 152
38 158
38 208
38 216
38 247
38 268
38 270
39 73
39 74
39 83
39 91
39 95
39 129
39 153
39 159
39 205
39 209
39 252
39 269
39 271
40 75
40 76
40 92
40 96
40 131
40 148
40 154
40 206
40 210
40 243
40 251
40 281
41 76
41 77
41 85
41 93
41 124
41 149
41 155
41 207
41 211
41 242
41 254
41 282
42 61
42 78
42 84
42 86
42 94
42 126
42 150
42 156
42 208
42 212
42 253
42 272
42 274
43 61
43 62
43 79
43 87
43 95
43 133
43 151
43 157
43 209
43 213
43 258
43 273
43 275
44 63
44 64
44 88
44 96
44 135
44 152
44 158
44 210
44 214
44 245
44 257
44 283
45 64
45 65
45 85
45 89
45 128
45 153
45 159
45 211
45 215
45 244
45 260
45 284
46 66
46 67
46 80
46 86
46 90
46 130
46 148
46 154
46 212
46 216
46 259
46 276
46 278
47 67
47 68
47 81
47 87
47 91
47 125
47 149
47 155
47 205
47 213
47 264
47 277
47 279
48 69
48 70
48 88
48 92
48 127
48 150
48 156
48 206
48 214
48 241
48 263
48 285
49 69
49 72
49 101
49 106
49 172
49 185
49 192
49 249
49 268
49 285
49 286
50 70
50 73
50 81
50 102
50 173
50 187
50 193
50 200
50 251
50 264
50 265
50 269
50 287
51 73
51 76
51 84
51 107
51 166
51 176
51 190
51 195
51 248
51 253
51 265
51 270
51 288
52 74
52 77
52 103
52 108
52 167
52 178
52 191
52 250
52 271
52 282
52 289
53 75
53 78
53 98
53 105
53 169
53 180
53 196
53 255
53 272
53 281
53 290
54 61
54 76
54 83
54 106
54 171
54 181
54 192
54 197
54 252
54 257
54 266
54 273
54 291
55 61
55 64
55 80
55 99
55 174
55 184
55 194
55 199
55 254
55 259
55 266
55 274
55 292
56 62
56 65
56 100
56 107
56 175
56 186
56 195
56 256
56 275
56 284
56 293
57 63
57 66
57 97
57 102
57 177
57 188
57 200
57 261
57 276
57 283
57 294
58 64
58 67
58 79
58 98
58 179
58 189
58 196
58 201
58 258
58 263
58 267
58 277
58 295
59 67
59 70
59 82
59 103
59 168
59 182
59 191
59 198
59 247
59 260
59 267
59 278
59 296
60 68
60 71
60 99
60 104
60 170
60 183
60 199
60 262
60 279
60 280
60 297
61 67
61 73
61 99
61 106
61 150
61 157
61 171
61 184
61 220
61 232
61 248
61 263
61 268
61 279
61 287
61 296
61 298
61 309
62 68
62 74
62 100
62 133
62 151
62 172
62 186
62 221
62 233
62 250
62 269
62 297
62 310
63 69
63 75
63 102
63 158
63 188
63 222
63 234
63 286
63 311
64 70
64 76
64 128
64 135
64 152
64 159
64 174
64 189
64 217
64 223
64 247
64 252
64 287
64 288
64 299
64 300
64 311
64 312
65 71
65 77
65 107
65 153
65 175
65 218
65 224
65 289
65 312
66 72
66 78
66 97
66 130
66 148
66 167
66 177
66 219
66 225
66 249
66 270
66 290
66 313
67 73
67 98
67 103
67 149
67 154
67 168
67 179
67 220
67 226
67 251
67 254
67 271
67 272
67 288
67 291
67 301
67 302
68 74
68 104
68 125
68 155
68 170
68 180
68 221
68 227
68 256
68 273
68 289
68 314
69 75
69 106
69 150
69 172
69 222
69 228
69 290
69 315
70 76
70 127
70 132
70 151
70 156
70 173
70 182
70 223
70 229
70 253
70 258
70 291
70 292
70 303
70 304
70 315
70 316
71 77
71 99
71 157
71 183
71 224
71 230
71 293
71 316
72 78
72 101
72 134
72 152
72 175
72 185
72 225
72 231
72 255
72 274
72 294
72 317
73 102
73 107
73 153
73 158
73 176
73 187
73 226
73 232
73 257
73 260
73 275
73 276
73 292
73 295
73 305
73 306
74 108
74 129
74 159
74 178
74 188
74 227
74 233
74 262
74 277
74 293
74 318
75 98
75 154
75 180
75 228
75 234
75 294
75 319
76 124
76 131
76 148
76 155
76 166
76 181
76 217
76 229
76 259
76 264
76 295
76 296
76 307
76 308
76 319
76 320
77 103
77 149
77 167
77 218
77 230
77 297
77 320
78 105
78 126
78 156
78 169
78 183
78 219
78 231
78 261
78 278
78 286
78 321
79 95
79 113
79 144
79 201
79 240
79 271
79 298
79 310
80 90
80 120
80 147
80 194
80 237
80 268
80 301
80 313
81 87
81 117
81 146
81 193
81 236
81 275
81 302
81 314
82 94
82 112
82 143
82 198
82 239
82 272
82 305
82 317
83 91
83 109
83 142
83 197
83 238
83 279
83 306
83 318
84 86
84 116
84 145
84 190
84 235
84 276
84 309
84 321
85 118
85 133
85 161
85 207
85 215
85 296
85 299
85 328
86 113
86 135
86 208
86 216
86 286
86 288
86 298
86 322
87 120
87 128
87 205
87 209
87 287
87 289
87 301
87 323
88 115
88 130
88 160
88 206
88 210
88 291
88 300
88 329
89 110
89 125
89 163
89 207
89 211
89 288
89 303
89 330
90 117
90 127
90 208
90 212
90 290
90 292
90 302
90 324
91 112
91 132
91 209
91 213
91 291
91 293
91 305
91 325
92 119
92 134
92 162
92 210
92 214
92 295
92 304
92 331
93 114
93 129
93 165
93 211
93 215
93 292
93 307
93 332
94 109
94 131
94 212
94 216
94 294
94 296
94 306
94 326
95 116
95 124
95 205
95 213
95 295
95 297
95 309
95 327
96 111
96 126
96 164
96 206
96 214
96 287
96 308
96 333
97 171
97 185
97 249
97 321
97 322
97 333
97 334
98 123
98 172
98 187
98 251
98 311
98 335
99 122
99 167
99 176
99 248
99 312
99 339
100 168
100 178
100 250
100 314
100 323
100 330
100 340
101 169
101 179
101 255
101 313
101 324
101 329
101 340
102 121
102 171
102 180
102 257
102 315
102 341
103 123
103 175
103 184
103 254
103 316
103 345
104 176
104 186
104 256
104 318
104 325
104 332
104 346
105 177
105 187
105 261
105 317
105 326
105 331
105 346
106 122
106 179
106 188
106 263
106 319
106 347
107 121
107 168
107 183
107 260
107 320
107 351
108 170
108 184
108 262
108 310
108 327
108 328
108 334
109 112
109 141
109 192
109 221
109 328
110 119
110 138
110 201
110 234
111 114
111 136
111 194
111 224
112 139
112 191
112 219
112 329
113 116
113 137
113 196
113 227
113 330
114 140
114 193
114 222
115 118
115 138
115 198
115 230
116 141
116 195
116 225
116 331
117 120
117 139
117 200
117 233
117 332
118 136
118 197
118 228
119 140
119 190
119 218
120 137
120 199
120 231
120 333
121 336
121 338
122 342
122 344
123 348
123 350
124 151
124 165
124 242
124 297
124 328
124 352
124 358
125 159
125 236
125 280
125 288
125 352
126 152
126 235
126 281
126 287
126 353
127 148
127 162
127 241
127 290
127 329
127 353
127 359
128 155
128 161
128 244
128 289
128 330
128 354
128 360
129 151
129 238
129 282
129 292
129 354
130 156
130 237
130 283
130 291
130 355
131 152
131 164
131 243
131 294
131 331
131 355
131 361
132 159
132 163
132 246
132 293
132 332
132 356
132 362
133 155
133 240
133 284
133 296
133 356
134 148
134 239
134 285
134 295
134 357
135 156
135 160
135 245
135 286
135 333
135 357
135 363
137 202
137 203
137 310
137 313
137 322
137 323
139 203
139 204
139 314
139 317
139 324
139 325
141 202
141 204
141 318
141 321
141 326
141 327
142 171
142 186
142 269
142 279
142 358
143 168
143 177
143 270
143 272
143 359
144 170
144 179
144 271
144 273
144 360
145 176
145 185
145 274
145 276
145 361
146 178
146 187
146 275
146 277
146 362
147 169
147 184
147 268
147 278
147 363
148 192
148 200
148 251
148 270
148 333
149 193
149 201
149 264
149 271
149 358
149 364
150 190
150 194
150 253
150 268
150 359
150 365
151 191
151 195
151 248
151 269
151 330
152 192
152 196
152 257
152 274
152 329
153 193
153 197
153 252
153 275
153 360
153 366
154 194
154 198
154 259
154 272
154 361
154 367
155 195
155 199
155 254
155 273
155 332
156 196
156 200
156 263
156 278
156 331
157 197
157 201
157 258
157 279
157 362
157 368
158 190
158 198
158 247
158 276
158 363
158 369
159 191
159 199
159 260
159 277
159 328
160 285
160 300
161 282
161 299
162 281
162 304
163 284
163 303
164 283
164 308
165 280
165 307
166 171
166 187
166 207
166 246
166 265
166 296
166 311
166 321
166 336
166 351
166 352
166 385
167 172
167 188
167 242
167 297
167 312
167 334
167 337
167 364
167 373
168 173
168 189
168 216
168 288
168 335
168 338
168 365
168 370
168 373
168 374
168 386
169 202
169 208
169 286
169 313
169 353
169 375
170 203
170 205
170 289
170 310
170 352
170 374
171 174
171 209
171 287
171 336
171 339
171 364
171 370
171 375
171 376
171 387
172 175
172 241
172 290
172 311
172 337
172 340
172 365
172 376
173 176
173 206
173 243
173 265
173 291
173 312
173 314
173 338
173 341
173 353
173 388
174 179
174 211
174 242
174 266
174 288
174 313
174 315
174 339
174 342
174 354
174 389
175 180
175 244
175 289
175 316
175 340
175 343
175 366
175 377
176 181
176 208
176 292
176 341
176 344
176 367
176 371
176 377
176 378
176 390
177 203
177 212
177 290
177 317
177 355
177 379
178 204
178 209
178 293
178 314
178 354
178 378
179 182
179 213
179 291
179 342
179 345
179 366
179 371
179 379
179 380
179 391
180 183
180 243
180 294
180 315
180 343
180 346
180 367
180 380
181 184
181 210
181 245
181 266
181 295
181 316
181 318
181 344
181 347
181 355
181 392
182 187
182 215
182 244
182 267
182 292
182 317
182 319
182 345
182 348
182 356
182 393
183 188
183 246
183 293
183 320
183 346
183 349
183 368
183 381
184 189
184 212
184 296
184 347
184 350
184 369
184 372
184 381
184 382
184 394
185 204
185 216
185 294
185 321
185 357
185 383
186 202
186 213
186 297
186 318
186 356
186 382
187 205
187 295
187 348
187 351
187 368
187 372
187 383
187 384
187 395
188 245
188 286
188 319
188 334
188 349
188 369
188 384
189 214
189 241
189 267
189 287
189 310
189 320
189 335
189 350
189 357
189 396
190 270
190 309
190 373
190 397
191 240
191 271
191 300
191 328
191 374
192 237
192 268
192 299
192 329
192 375
193 269
193 302
193 376
193 398
194 274
194 301
194 377
194 399
195 236
195 275
195 304
195 330
195 378
196 239
196 272
196 303
196 331
196 379
197 273
197 306
197 380
197 400
198 278
198 305
198 381
198 401
199 238
199 279
199 308
199 332
199 382
200 235
200 276
200 307
200 333
200 383
201 277
201 298
201 384
201 402
205 220
205 233
205 269
205 279
205 327
205 352
205 402
206 217
206 222
206 353
207 218
207 223
207 352
208 220
208 225
208 270
208 272
208 324
208 353
208 399
209 221
209 226
209 271
209 273
209 323
209 354
209 398
210 223
210 228
210 355
211 224
211 229
211 354
212 226
212 231
212 274
212 276
212 326
212 355
212 401
213 227
213 232
213 275
213 277
213 325
213 356
213 400
214 229
214 234
214 357
215 217
215 230
215 356
216 219
216 232
216 268
216 278
216 322
216 357
216 397
217 248
217 263
217 299
217 308
218 250
218 351
218 373
219 338
219 375
220 247
220 252
220 298
220 301
220 373
220 376
221 336
221 374
222 249
222 341
222 376
223 251
223 254
223 300
223 303
224 256
224 339
224 377
225 344
225 379
226 253
226 258
226 302
226 305
226 377
226 380
227 342
227 378
228 255
228 347
228 380
229 257
229 260
229 304
229 307
230 262
230 345
230 381
231 350
231 383
232 259
232 264
232 306
232 309
232 381
232 384
233 348
233 382
234 261
234 335
234 384
235 265
235 321
236 265
236 314
237 266
237 313
238 266
238 318
239 267
239 317
240 267
240 310
241 285
241 300
241 365
242 282
242 299
242 364
243 281
243 304
243 367
244 284
244 303
244 366
245 283
245 308
245 369
246 280
246 307
246 368
247 296
247 311
247 363
247 373
247 396
248 280
248 288
248 387
249 286
249 313
249 376
250 289
250 310
250 373
251 281
251 287
251 386
252 291
252 312
252 360
252 376
252 389
253 288
253 315
253 359
253 377
253 388
254 282
254 292
254 391
255 290
255 317
255 380
256 293
256 314
256 377
257 283
257 291
257 390
258 295
258 316
258 362
258 380
258 393
259 292
259 319
259 361
259 381
259 392
260 284
260 296
260 395
261 294
261 321
261 384
262 297
262 318
262 381
263 285
263 295
263 394
264 287
264 320
264 358
264 384
264 385
268 285
268 365
268 375
268 397
269 323
269 358
269 376
270 322
270 359
270 373
271 282
271 364
271 374
271 398
272 281
272 367
272 379
272 399
273 325
273 360
273 380
274 324
274 361
274 377
275 284
275 366
275 378
275 400
276 283
276 369
276 383
276 401
277 327
277 362
277 384
278 326
278 363
278 381
279 280
279 368
279 382
279 402
280 352
281 353
282 354
283 355
284 356
285 357
286 311
286 321
286 363
287 312
287 333
287 370
288 311
288 330
288 370
289 312
289 314
289 360
290 313
290 315
290 359
291 316
291 329
291 371
292 315
292 332
292 371
293 316
293 318
293 362
294 317
294 319
294 361
295 320
295 331
295 372
296 319
296 328
296 372
297 310
297 320
297 358
298 309
298 364
298 402
299 300
299 328
300 329
301 302
301 365
301 399
302 366
302 398
303 304
303 330
304 331
305 306
305 367
305 401
306 368
306 400
307 308
307 332
308 333
309 369
309 397
310 337
310 374
311 335
311 376
311 403
312 339
312 373
312 403
313 337
313 375
314 343
314 378
315 341
315 380
315 404
316 345
316 377
316 404
317 343
317 379
318 349
318 382
319 347
319 384
319 405
320 351
320 381
320 405
321 349
321 383
322 333
322 370
323 330
323 370
324 329
324 371
325 332
325 371
326 331
326 372
327 328
327 372
328 352
329 353
330 354
331 355
332 356
333 357
335 351
335 386
335 396
336 338
336 385
336 387
336 403
338 386
338 388
338 403
339 341
339 387
339 389
341 388
341 390
342 344
342 389
342 391
342 404
344 390
344 392
344 404
345 347
345 391
345 393
347 392
347 394
348 350
348 393
348 395
348 405
350 394
350 396
350 405
351 385
351 395
358 364
358 402
359 365
359 399
360 366
360 398
361 367
361 401
362 368
362 400
363 369
363 397
364 376
365 373
366 380
367 377
368 384
369 381
373 397
373 403
376 398
376 403
377 399
377 404
380 400
380 404
381 401
381 405
384 402
384 405
