0 166
0 167
0 168
0 169
0 170
0 171
0 172
0 173
0 174
0 175
0 176
0 177
0 178
0 179
0 180
0 181
0 182
0 183
0 184
0 185
0 186
0 187
0 188
0 189
1 130
1 131
1 139
1 145
1 152
1 156
1 164
1 173
1 185
1 192
1 200
1 206
1 216
1 217
1 219
1 235
2 140
2 146
2 153
2 157
2 187
2 193
2 201
2 205
2 207
2 218
2 220
3 140
3 145
3 154
3 158
3 176
3 190
3 194
3 206
3 208
3 220
3 222
4 132
4 133
4 141
4 146
4 155
4 159
4 163
4 166
4 178
4 191
4 195
4 207
4 209
4 221
4 223
4 236
5 134
5 135
5 141
5 147
5 148
5 156
5 160
5 169
5 181
5 192
5 196
5 208
5 210
5 223
5 225
5 237
6 136
6 142
6 149
6 157
6 171
6 193
6 197
6 209
6 211
6 224
6 226
7 136
7 147
7 150
7 158
7 184
7 194
7 198
7 210
7 212
7 226
7 228
8 124
8 125
8 137
8 142
8 151
8 159
8 165
8 174
8 186
8 195
8 199
8 211
8 213
8 227
8 229
8 238
9 126
9 127
9 137
9 143
9 148
9 152
9 162
9 177
9 189
9 196
9 200
9 212
9 214
9 229
9 231
9 239
10 138
10 144
10 149
10 153
10 179
10 197
10 201
10 213
10 215
10 230
10 232
11 138
11 143
11 150
11 154
11 168
11 190
11 198
11 214
11 216
11 232
11 234
12 128
12 129
12 139
12 144
12 151
12 155
12 161
12 170
12 182
12 191
12 199
12 205
12 215
12 217
12 233
12 240
13 114
13 115
13 138
13 140
13 206
13 215
14 104
14 105
14 116
14 117
14 139
14 141
14 202
14 203
14 205
14 208
14 235
14 236
15 118
15 119
15 136
15 140
15 207
15 210
16 97
16 108
16 109
16 120
16 137
16 141
16 203
16 204
16 209
16 212
16 237
16 238
17 110
17 111
17 136
17 138
17 211
17 214
18 100
18 101
18 112
18 113
18 137
18 139
18 202
18 204
18 213
18 216
18 239
18 240
19 91
19 104
19 132
19 173
19 186
19 221
20 93
20 106
20 122
20 129
20 165
20 174
20 188
20 217
20 222
20 242
20 248
20 249
21 92
21 103
21 123
21 134
21 162
21 175
21 189
21 218
21 223
21 241
21 250
21 251
22 94
22 105
22 131
22 166
22 177
22 219
23 95
23 108
23 124
23 170
23 181
23 227
24 85
24 98
24 123
24 133
24 161
24 172
24 182
24 223
24 228
24 244
24 254
24 255
25 96
25 107
25 121
25 126
25 164
25 173
25 183
25 224
25 229
25 243
25 256
25 257
26 86
26 97
26 135
26 174
26 185
26 225
27 87
27 100
27 128
27 178
27 189
27 233
28 89
28 102
28 121
28 125
28 163
28 166
28 180
28 229
28 234
28 246
28 260
28 261
29 88
29 99
29 122
29 130
29 160
29 167
29 181
29 217
29 230
29 245
29 262
29 263
30 90
30 101
30 127
30 169
30 182
30 231
31 90
31 93
31 114
31 117
31 193
31 200
31 249
32 92
32 95
32 116
32 119
32 190
32 195
32 250
33 85
33 94
33 109
33 118
33 192
33 197
33 255
34 87
34 96
34 111
34 120
34 194
34 199
34 256
35 86
35 89
35 110
35 113
35 196
35 201
35 261
36 88
36 91
36 112
36 115
36 191
36 198
36 262
37 70
37 71
37 89
37 93
37 132
37 151
37 157
37 207
37 215
37 246
37 248
37 283
38 72
38 73
38 82
38 90
38 94
38 134
38 152
38 158
38 208
38 216
38 247
38 271
38 273
39 73
39 74
39 83
39 91
39 95
39 129
39 153
39 159
39 205
39 209
39 252
39 272
39 274
40 75
40 76
40 92
40 96
40 131
40 148
40 154
40 206
40 210
40 243
40 251
40 284
41 76
41 77
41 85
41 93
41 124
41 149
41 155
41 207
41 211
41 242
41 254
41 285
42 61
42 78
42 84
42 86
42 94
42 126
42 150
42 156
42 208
42 212
42 253
42 275
42 277
43 61
43 62
43 79
43 87
43 95
43 133
43 151
43 157
43 209
43 213
43 258
43 276
43 278
44 63
44 64
44 88
44 96
44 135
44 152
44 158
44 210
44 214
44 245
44 257
44 286
45 64
45 65
45 85
45 89
45 128
45 153
45 159
45 211
45 215
45 244
45 260
45 287
46 66
46 67
46 80
46 86
46 90
46 130
46 148
46 154
46 212
46 216
46 259
46 279
46 281
47 67
47 68
47 81
47 87
47 91
47 125
47 149
47 155
47 205
47 213
47 264
47 280
47 282
48 69
48 70
48 88
48 92
48 127
48 150
48 156
48 206
48 214
48 241
48 263
48 288
49 69
49 72
49 101
49 106
49 172
49 185
49 192
49 249
49 271
49 288
49 289
50 70
50 73
50 81
50 102
50 173
50 187
50 193
50 200
50 251
50 264
50 265
50 266
50 272
50 290
51 73
51 76
51 84
51 107
51 166
51 176
51 190
51 195
51 248
51 253
51 266
51 267
51 273
51 291
52 74
52 77
52 103
52 108
52 167
52 178
52 191
52 250
52 274
52 285
52 292
53 75
53 78
53 98
53 105
53 169
53 180
53 196
53 255
53 275
53 284
53 293
54 61
54 76
54 83
54 106
54 171
54 181
54 192
54 197
54 252
54 257
54 267
54 268
54 276
54 294
55 61
55 64
55 80
55 99
55 174
55 184
55 194
55 199
55 254
55 259
55 268
55 269
55 277
55 295
56 62
56 65
56 100
56 107
56 175
56 186
56 195
56 256
56 278
56 287
56 296
57 63
57 66
57 97
57 102
57 177
57 188
57 200
57 261
57 279
57 286
57 297
58 64
58 67
58 79
58 98
58 179
58 189
58 196
58 201
58 258
58 263
58 269
58 270
58 280
58 298
59 67
59 70
59 82
59 103
59 168
59 182
59 191
59 198
59 247
59 260
59 265
59 270
59 281
59 299
60 68
60 71
60 99
60 104
60 170
60 183
60 199
60 262
60 282
60 283
60 300
61 67
61 73
61 99
61 106
61 150
61 157
61 171
61 184
61 220
61 232
61 248
61 263
61 271
61 282
61 290
61 299
61 301
61 312
62 68
62 74
62 100
62 133
62 151
62 172
62 186
62 221
62 233
62 250
62 272
62 300
62 313
63 69
63 75
63 102
63 158
63 188
63 222
63 234
63 289
63 314
64 70
64 76
64 128
64 135
64 152
64 159
64 174
64 189
64 217
64 223
64 247
64 252
64 290
64 291
64 302
64 303
64 314
64 315
65 71
65 77
65 107
65 153
65 175
65 218
65 224
65 292
65 315
66 72
66 78
66 97
66 130
66 148
66 167
66 177
66 219
66 225
66 249
66 273
66 293
66 316
67 73
67 98
67 103
67 149
67 154
67 168
67 179
67 220
67 226
67 251
67 254
67 274
67 275
67 291
67 294
67 304
67 305
68 74
68 104
68 125
68 155
68 170
68 180
68 221
68 227
68 256
68 276
68 292
68 317
69 75
69 106
69 150
69 172
69 222
69 228
69 293
69 318
70 76
70 127
70 132
70 151
70 156
70 173
70 182
70 223
70 229
70 253
70 258
70 294
70 295
70 306
70 307
70 318
70 319
71 77
71 99
71 157
71 183
71 224
71 230
71 296
71 319
72 78
72 101
72 134
72 152
72 175
72 185
72 225
72 231
72 255
72 277
72 297
72 320
73 102
73 107
73 153
73 158
73 176
73 187
73 226
73 232
73 257
73 260
73 278
73 279
73 295
73 298
73 308
73 309
74 108
74 129
74 159
74 178
74 188
74 227
74 233
74 262
74 280
74 296
74 321
75 98
75 154
75 180
75 228
75 234
75 297
75 322
76 124
76 131
76 148
76 155
76 166
76 181
76 217
76 229
76 259
76 264
76 298
76 299
76 310
76 311
76 322
76 323
77 103
77 149
77 167
77 218
77 230
77 300
77 323
78 105
78 126
78 156
78 169
78 183
78 219
78 231
78 261
78 281
78 289
78 324
79 95
79 113
79 144
79 201
79 240
79 274
79 301
79 313
80 90
80 120
80 147
80 194
80 237
80 271
80 304
80 316
81 87
81 117
81 146
81 193
81 236
81 278
81 305
81 317
82 94
82 112
82 143
82 198
82 239
82 275
82 308
82 320
83 91
83 109
83 142
83 197
83 238
83 282
83 309
83 321
84 86
84 116
84 145
84 190
84 235
84 279
84 312
84 324
85 118
85 133
85 161
85 207
85 215
85 299
85 302
85 331
86 113
86 135
86 208
86 216
86 289
86 291
86 301
86 325
87 120
87 128
87 205
87 209
87 290
87 292
87 304
87 326
88 115
88 130
88 160
88 206
88 210
88 294
88 303
88 332
89 110
89 125
89 163
89 207
89 211
89 291
89 306
89 333
90 117
90 127
90 208
90 212
90 293
90 295
90 305
90 327
91 112
91 132
91 209
91 213
91 294
91 296
91 308
91 328
92 119
92 134
92 162
92 210
92 214
92 298
92 307
92 334
93 114
93 129
93 165
93 211
93 215
93 295
93 310
93 335
94 109
94 131
94 212
94 216
94 297
94 299
94 309
94 329
95 116
95 124
95 205
95 213
95 298
95 300
95 312
95 330
96 111
96 126
96 164
96 206
96 214
96 290
96 311
96 336
97 171
97 185
97 249
97 324
97 325
97 336
97 337
98 123
98 172
98 187
98 251
98 314
98 338
99 122
99 167
99 176
99 248
99 315
99 342
100 168
100 178
100 250
100 317
100 326
100 333
100 343
101 169
101 179
101 255
101 316
101 327
101 332
101 343
102 121
102 171
102 180
102 257
102 318
102 344
103 123
103 175
103 184
103 254
103 319
103 348
104 176
104 186
104 256
104 321
104 328
104 335
104 349
105 177
105 187
105 261
105 320
105 329
105 334
105 349
106 122
106 179
106 188
106 263
106 322
106 350
107 121
107 168
107 183
107 260
107 323
107 354
108 170
108 184
108 262
108 313
108 330
108 331
108 337
109 112
109 141
109 192
109 221
109 331
110 119
110 138
110 201
110 234
111 114
111 136
111 194
111 224
112 139
112 191
112 219
112 332
113 116
113 137
113 196
113 227
113 333
114 140
114 193
114 222
115 118
115 138
115 198
115 230
116 141
116 195
116 225
116 334
117 120
117 139
117 200
117 233
117 335
118 136
118 197
118 228
119 140
119 190
119 218
120 137
120 199
120 231
120 336
121 339
121 341
122 345
122 347
123 351
123 353
124 151
124 165
124 242
124 300
124 331
124 355
124 361
125 159
125 236
125 283
125 291
125 355
126 152
126 235
126 284
126 290
126 356
127 148
127 162
127 241
127 293
127 332
127 356
127 362
128 155
128 161
128 244
128 292
128 333
128 357
128 363
129 151
129 238
129 285
129 295
129 357
130 156
130 237
130 286
130 294
130 358
131 152
131 164
131 243
131 297
131 334
131 358
131 364
132 159
132 163
132 246
132 296
132 335
132 359
132 365
133 155
133 240
133 287
133 299
133 359
134 148
134 239
134 288
134 298
134 360
135 156
135 160
135 245
135 289
135 336
135 360
135 366
137 202
137 203
137 313
137 316
137 325
137 326
139 203
139 204
139 317
139 320
139 327
139 328
141 202
141 204
141 321
141 324
141 329
141 330
142 171
142 186
142 272
142 282
142 361
143 168
143 177
143 273
143 275
143 362
144 170
144 179
144 274
144 276
144 363
145 176
145 185
145 277
145 279
145 364
146 178
146 187
146 278
146 280
146 365
147 169
147 184
147 271
147 281
147 366
148 192
148 200
148 251
148 273
148 336
149 193
149 201
149 264
149 274
149 361
149 367
150 190
150 194
150 253
150 271
150 362
150 368
151 191
151 195
151 248
151 272
151 333
152 192
152 196
152 257
152 277
152 332
153 193
153 197
153 252
153 278
153 363
153 369
154 194
154 198
154 259
154 275
154 364
154 370
155 195
155 199
155 254
155 276
155 335
156 196
156 200
156 263
156 281
156 334
157 197
157 201
157 258
157 282
157 365
157 371
158 190
158 198
158 247
158 279
158 366
158 372
159 191
159 199
159 260
159 280
159 331
160 288
160 303
161 285
161 302
162 284
162 307
163 287
163 306
164 286
164 311
165 283
165 310
166 171
166 187
166 207
166 246
166 266
166 299
166 314
166 324
166 339
166 354
166 355
166 385
167 172
167 188
167 242
167 300
167 315
167 337
167 340
167 367
167 373
168 173
168 189
168 216
168 265
168 291
168 338
168 341
168 368
168 373
168 374
168 386
169 202
169 208
169 289
169 316
169 356
169 375
170 203
170 205
170 292
170 313
170 355
170 374
171 174
171 209
171 267
171 290
171 339
171 342
171 367
171 375
171 376
171 387
172 175
172 241
172 293
172 314
172 340
172 343
172 368
172 376
173 176
173 206
173 243
173 266
173 294
173 315
173 317
173 341
173 344
173 356
173 388
174 179
174 211
174 242
174 268
174 291
174 316
174 318
174 342
174 345
174 357
174 389
175 180
175 244
175 292
175 319
175 343
175 346
175 369
175 377
176 181
176 208
176 267
176 295
176 344
176 347
176 370
176 377
176 378
176 390
177 203
177 212
177 293
177 320
177 358
177 379
178 204
178 209
178 296
178 317
178 357
178 378
179 182
179 213
179 269
179 294
179 345
179 348
179 369
179 379
179 380
179 391
180 183
180 243
180 297
180 318
180 346
180 349
180 370
180 380
181 184
181 210
181 245
181 268
181 298
181 319
181 321
181 347
181 350
181 358
181 392
182 187
182 215
182 244
182 270
182 295
182 320
182 322
182 348
182 351
182 359
182 393
183 188
183 246
183 296
183 323
183 349
183 352
183 371
183 381
184 189
184 212
184 269
184 299
184 350
184 353
184 372
184 381
184 382
184 394
185 204
185 216
185 297
185 324
185 360
185 383
186 202
186 213
186 300
186 321
186 359
186 382
187 205
187 265
187 298
187 351
187 354
187 371
187 383
187 384
187 395
188 245
188 289
188 322
188 337
188 352
188 372
188 384
189 214
189 241
189 270
189 290
189 313
189 323
189 338
189 353
189 360
189 396
190 273
190 312
190 373
190 397
191 240
191 274
191 303
191 331
191 374
192 237
192 271
192 302
192 332
192 375
193 272
193 305
193 376
193 398
194 277
194 304
194 377
194 399
195 236
195 278
195 307
195 333
195 378
196 239
196 275
196 306
196 334
196 379
197 276
197 309
197 380
197 400
198 281
198 308
198 381
198 401
199 238
199 282
199 311
199 335
199 382
200 235
200 279
200 310
200 336
200 383
201 280
201 301
201 384
201 402
205 220
205 233
205 272
205 282
205 330
205 355
205 402
206 217
206 222
206 356
207 218
207 223
207 355
208 220
208 225
208 273
208 275
208 327
208 356
208 399
209 221
209 226
209 274
209 276
209 326
209 357
209 398
210 223
210 228
210 358
211 224
211 229
211 357
212 226
212 231
212 277
212 279
212 329
212 358
212 401
213 227
213 232
213 278
213 280
213 328
213 359
213 400
214 229
214 234
214 360
215 217
215 230
215 359
216 219
216 232
216 271
216 281
216 325
216 360
216 397
217 248
217 263
217 302
217 311
218 250
218 354
218 373
219 341
219 375
220 247
220 252
220 301
220 304
220 373
220 376
221 339
221 374
222 249
222 344
222 376
223 251
223 254
223 303
223 306
224 256
224 342
224 377
225 347
225 379
226 253
226 258
226 305
226 308
226 377
226 380
227 345
227 378
228 255
228 350
228 380
229 257
229 260
229 307
229 310
230 262
230 348
230 381
231 353
231 383
232 259
232 264
232 309
232 312
232 381
232 384
233 351
233 382
234 261
234 338
234 384
235 266
235 324
236 266
236 317
237 268
237 316
238 268
238 321
239 270
239 320
240 270
240 313
241 288
241 303
241 368
242 285
242 302
242 367
243 284
243 307
243 370
244 287
244 306
244 369
245 286
245 311
245 372
246 283
246 310
246 371
247 299
247 314
247 366
247 373
247 396
248 283
248 291
248 387
249 289
249 316
249 376
250 292
250 313
250 373
251 284
251 290
251 386
252 294
252 315
252 363
252 376
252 389
253 291
253 318
253 362
253 377
253 388
254 285
254 295
254 391
255 293
255 320
255 380
256 296
256 317
256 377
257 286
257 294
257 390
258 298
258 319
258 365
258 380
258 393
259 295
259 322
259 364
259 381
259 392
260 287
260 299
260 395
261 297
261 324
261 384
262 300
262 321
262 381
263 288
263 298
263 394
264 290
264 323
264 361
264 384
264 385
271 288
271 368
271 375
271 397
272 326
272 361
272 376
273 325
273 362
273 373
274 285
274 367
274 374
274 398
275 284
275 370
275 379
275 399
276 328
276 363
276 380
277 327
277 364
277 377
278 287
278 369
278 378
278 400
279 286
279 372
279 383
279 401
280 330
280 365
280 384
281 329
281 366
281 381
282 283
282 371
282 382
282 402
283 355
284 356
285 357
286 358
287 359
288 360
289 314
289 324
289 366
290 315
290 336
291 314
291 333
292 315
292 317
292 363
293 316
293 318
293 362
294 319
294 332
295 318
295 335
296 319
296 321
296 365
297 320
297 322
297 364
298 323
298 334
299 322
299 331
300 313
300 323
300 361
301 312
301 367
301 402
302 303
302 331
303 332
304 305
304 368
304 399
305 369
305 398
306 307
306 333
307 334
308 309
308 370
308 401
309 371
309 400
310 311
310 335
311 336
312 372
312 397
313 340
313 374
314 338
314 376
314 403
315 342
315 373
315 403
316 340
316 375
317 346
317 378
318 344
318 380
318 404
319 348
319 377
319 404
320 346
320 379
321 352
321 382
322 350
322 384
322 405
323 354
323 381
323 405
324 352
324 383
325 336
326 333
327 332
328 335
329 334
330 331
331 355
332 356
333 357
334 358
335 359
336 360
338 354
338 386
338 396
339 341
339 385
339 387
339 403
341 386
341 388
341 403
342 344
342 387
342 389
344 388
344 390
345 347
345 389
345 391
345 404
347 390
347 392
347 404
348 350
348 391
348 393
350 392
350 394
351 353
351 393
351 395
351 405
353 394
353 396
353 405
354 385
354 395
361 367
361 402
362 368
362 399
363 369
363 398
364 370
364 401
365 371
365 400
366 372
366 397
367 376
368 373
369 380
370 377
371 384
372 381
373 397
373 403
376 398
376 403
377 399
377 404
380 400
380 404
381 401
381 405
384 402
384 405
