0 166
0 167
0 168
0 169
0 170
0 171
0 172
0 173
0 174
0 175
0 176
0 177
0 178
0 179
0 180
0 181
0 182
0 183
0 184
0 185
0 186
0 187
0 188
0 189
1 139
1 144
1 152
1 156
1 172
1 192
1 200
1 206
1 216
1 217
1 219
2 130
2 131
2 140
2 145
2 153
2 157
2 162
2 174
2 186
2 193
2 201
2 205
2 207
2 218
2 220
2 235
3 132
3 133
3 140
3 146
3 154
3 158
3 165
3 177
3 189
3 190
3 194
3 206
3 208
3 220
3 222
3 236
4 141
4 147
4 155
4 159
4 167
4 191
4 195
4 207
4 209
4 221
4 223
5 141
5 146
5 148
5 156
5 180
5 192
5 196
5 208
5 210
5 223
5 225
6 134
6 135
6 136
6 147
6 149
6 157
6 164
6 170
6 182
6 193
6 197
6 209
6 211
6 224
6 226
6 237
7 124
7 125
7 136
7 142
7 150
7 158
7 161
7 173
7 185
7 194
7 198
7 210
7 212
7 226
7 228
7 238
8 137
8 143
8 151
8 159
8 175
8 195
8 199
8 211
8 213
8 227
8 229
9 137
9 142
9 148
9 152
9 188
9 196
9 200
9 212
9 214
9 229
9 231
10 126
10 127
10 138
10 143
10 149
10 153
10 160
10 166
10 178
10 197
10 201
10 213
10 215
10 230
10 232
10 239
11 128
11 129
11 138
11 144
11 150
11 154
11 163
11 169
11 181
11 190
11 198
11 214
11 216
11 232
11 234
11 240
12 139
12 145
12 151
12 155
12 183
12 191
12 199
12 205
12 215
12 217
12 233
13 102
13 103
13 114
13 115
13 138
13 140
13 202
13 204
13 206
13 215
13 235
13 240
14 116
14 117
14 139
14 141
14 205
14 208
15 106
15 107
15 118
15 119
15 136
15 140
15 202
15 203
15 207
15 210
15 236
15 237
16 109
16 120
16 137
16 141
16 209
16 212
17 98
17 99
17 110
17 111
17 136
17 138
17 203
17 204
17 211
17 214
17 238
17 239
18 112
18 113
18 137
18 139
18 213
18 216
19 90
19 101
19 123
19 132
19 161
19 171
19 185
19 220
19 233
19 246
19 247
19 248
20 92
20 103
20 129
20 173
20 186
20 234
21 93
21 106
21 134
21 166
21 177
21 224
22 95
22 108
22 123
22 131
22 160
22 168
22 178
22 220
22 225
22 243
22 251
22 252
23 94
23 105
23 121
23 124
23 163
23 169
23 179
23 221
23 226
23 242
23 253
23 254
24 96
24 107
24 133
24 170
24 181
24 222
25 85
25 98
25 126
25 174
25 185
25 230
26 87
26 100
26 121
26 135
26 162
26 176
26 186
26 226
26 231
26 245
26 257
26 258
27 86
27 97
27 122
27 128
27 165
27 177
27 187
27 227
27 232
27 244
27 259
27 260
28 88
28 99
28 125
28 178
28 189
28 228
29 89
29 102
29 130
29 169
29 182
29 218
30 91
30 104
30 122
30 127
30 164
30 170
30 184
30 219
30 232
30 241
30 263
30 264
31 90
31 93
31 114
31 117
31 193
31 200
31 247
32 92
32 95
32 116
32 119
32 190
32 195
32 252
33 85
33 94
33 109
33 118
33 192
33 197
33 253
34 87
34 96
34 111
34 120
34 194
34 199
34 258
35 86
35 89
35 110
35 113
35 196
35 201
35 259
36 88
36 91
36 112
36 115
36 191
36 198
36 264
37 70
37 71
37 82
37 89
37 93
37 127
37 151
37 157
37 207
37 215
37 249
37 272
37 282
38 72
38 73
38 90
38 94
38 129
38 152
38 158
38 208
38 216
38 242
38 248
38 283
39 73
39 74
39 91
39 95
39 134
39 153
39 159
39 205
39 209
39 241
39 251
39 284
40 75
40 76
40 83
40 92
40 96
40 124
40 148
40 154
40 206
40 210
40 250
40 273
40 275
41 76
41 77
41 84
41 85
41 93
41 131
41 149
41 155
41 207
41 211
41 255
41 274
41 276
42 61
42 78
42 86
42 94
42 133
42 150
42 156
42 208
42 212
42 244
42 254
42 285
43 61
43 62
43 87
43 95
43 126
43 151
43 157
43 209
43 213
43 243
43 257
43 286
44 63
44 64
44 79
44 88
44 96
44 128
44 152
44 158
44 210
44 214
44 256
44 277
44 279
45 64
45 65
45 80
45 85
45 89
45 135
45 153
45 159
45 211
45 215
45 261
45 278
45 280
46 66
46 67
46 86
46 90
46 125
46 148
46 154
46 212
46 216
46 246
46 260
46 287
47 67
47 68
47 87
47 91
47 130
47 149
47 155
47 205
47 213
47 245
47 263
47 288
48 69
48 70
48 81
48 88
48 92
48 132
48 150
48 156
48 206
48 214
48 262
48 271
48 281
49 70
49 73
49 83
49 105
49 172
49 186
49 193
49 200
49 250
49 263
49 265
49 266
49 271
49 289
50 71
50 74
50 101
50 106
50 174
50 187
50 201
50 247
50 272
50 284
50 290
51 72
51 75
51 103
51 108
51 176
51 189
51 194
51 252
51 273
51 283
51 291
52 73
52 76
52 82
52 104
52 167
52 177
52 190
52 195
52 249
52 254
52 266
52 267
52 274
52 292
53 61
53 76
53 79
53 97
53 170
53 180
53 192
53 197
53 251
53 256
53 267
53 268
53 275
53 293
54 62
54 77
54 98
54 105
54 171
54 182
54 193
54 253
54 276
54 286
54 294
55 63
55 78
55 100
55 107
55 173
55 184
55 198
55 258
55 277
55 285
55 295
56 61
56 64
56 84
56 108
56 175
56 185
56 194
56 199
56 255
56 260
56 268
56 269
56 278
56 296
57 64
57 67
57 81
57 101
57 178
57 188
57 196
57 201
57 257
57 262
57 269
57 270
57 279
57 297
58 65
58 68
58 97
58 102
58 166
58 179
58 197
58 259
58 280
58 288
58 298
59 66
59 69
59 99
59 104
59 168
59 181
59 190
59 264
59 281
59 287
59 299
60 67
60 70
60 80
60 100
60 169
60 183
60 191
60 198
60 248
60 261
60 265
60 270
60 282
60 300
61 67
61 73
61 126
61 133
61 150
61 157
61 170
61 185
61 220
61 232
61 249
61 262
61 289
61 300
61 301
61 312
61 313
61 324
62 68
62 74
62 105
62 151
62 171
62 221
62 233
62 290
62 313
63 69
63 75
63 107
63 128
63 158
63 173
63 187
63 222
63 234
63 264
63 271
63 291
63 314
64 70
64 76
64 101
64 108
64 152
64 159
64 175
64 188
64 217
64 223
64 248
64 251
64 272
64 273
64 289
64 292
64 302
64 303
65 71
65 77
65 102
65 135
65 153
65 166
65 176
65 218
65 224
65 253
65 274
65 290
65 315
66 72
66 78
66 104
66 148
66 168
66 219
66 225
66 291
66 316
67 73
67 125
67 130
67 149
67 154
67 169
67 178
67 220
67 226
67 250
67 255
67 292
67 293
67 304
67 305
67 316
67 317
68 74
68 97
68 155
68 179
68 221
68 227
68 294
68 317
69 75
69 99
69 132
69 150
69 171
69 181
69 222
69 228
69 252
69 275
69 295
69 318
70 76
70 100
70 105
70 151
70 156
70 172
70 183
70 223
70 229
70 254
70 257
70 276
70 277
70 293
70 296
70 306
70 307
71 77
71 106
71 127
71 157
71 174
71 184
71 224
71 230
71 259
71 278
71 294
71 319
72 78
72 108
72 152
72 176
72 225
72 231
72 295
72 320
73 129
73 134
73 153
73 158
73 177
73 186
73 226
73 232
73 256
73 261
73 296
73 297
73 308
73 309
73 320
73 321
74 101
74 159
74 187
74 227
74 233
74 298
74 321
75 103
75 124
75 154
75 179
75 189
75 228
75 234
75 258
75 279
75 299
75 322
76 97
76 104
76 148
76 155
76 167
76 180
76 217
76 229
76 260
76 263
76 280
76 281
76 297
76 300
76 310
76 311
77 98
77 131
77 149
77 168
77 182
77 218
77 230
77 247
77 282
77 298
77 323
78 100
78 156
78 184
78 219
78 231
78 299
78 324
79 88
79 118
79 146
79 192
79 236
79 281
79 302
79 314
80 85
80 115
80 145
80 191
80 235
80 276
80 303
80 315
81 92
81 110
81 142
81 196
81 238
81 273
81 306
81 318
82 89
82 119
82 147
82 195
82 237
82 280
82 307
82 319
83 96
83 114
83 144
83 200
83 240
83 277
83 310
83 322
84 93
84 111
84 143
84 199
84 239
84 272
84 311
84 323
85 118
85 126
85 207
85 215
85 290
85 300
85 302
85 325
86 113
86 128
86 165
86 208
86 216
86 292
86 301
86 331
87 120
87 135
87 162
87 205
87 209
87 289
87 304
87 332
88 115
88 125
88 206
88 210
88 291
88 293
88 303
88 326
89 110
89 130
89 207
89 211
89 292
89 294
89 306
89 327
90 117
90 132
90 161
90 208
90 212
90 296
90 305
90 333
91 112
91 127
91 164
91 209
91 213
91 293
91 308
91 334
92 119
92 129
92 210
92 214
92 295
92 297
92 307
92 328
93 114
93 134
93 211
93 215
93 296
93 298
93 310
93 329
94 109
94 124
94 163
94 212
94 216
94 300
94 309
94 335
95 116
95 131
95 160
95 205
95 213
95 297
95 312
95 336
96 111
96 133
96 206
96 214
96 289
96 299
96 311
96 330
97 122
97 172
97 187
97 263
97 313
97 339
98 174
98 188
98 247
98 315
98 325
98 332
98 340
99 175
99 189
99 252
99 314
99 326
99 331
99 340
100 121
100 167
100 176
100 254
100 316
100 341
101 123
101 171
101 180
101 251
101 317
101 345
102 172
102 182
102 253
102 319
102 327
102 334
102 346
103 173
103 183
103 258
103 318
103 328
103 333
103 346
104 122
104 175
104 184
104 260
104 320
104 347
105 121
105 179
105 188
105 257
105 321
105 351
106 166
106 180
106 259
106 323
106 329
106 336
106 352
107 167
107 181
107 264
107 322
107 330
107 335
107 352
108 123
108 168
108 183
108 248
108 324
108 353
109 112
109 141
109 192
109 221
110 119
110 138
110 201
110 234
110 331
111 114
111 136
111 194
111 224
111 332
112 139
112 191
112 219
113 116
113 137
113 196
113 227
114 140
114 193
114 222
114 333
115 118
115 138
115 198
115 230
115 334
116 141
116 195
116 225
117 120
117 139
117 200
117 233
118 136
118 197
118 228
118 335
119 140
119 190
119 218
119 336
120 137
120 199
120 231
121 338
121 354
122 342
122 344
123 348
123 350
124 150
124 240
124 283
124 300
124 355
125 158
125 161
125 246
125 291
125 331
125 355
125 361
126 153
126 160
126 243
126 290
126 332
126 356
126 362
127 149
127 237
127 284
127 293
127 356
128 154
128 236
128 285
128 292
128 357
129 150
129 163
129 242
129 295
129 333
129 357
129 363
130 157
130 162
130 245
130 294
130 334
130 358
130 364
131 153
131 239
131 286
131 297
131 358
132 158
132 238
132 287
132 296
132 359
133 154
133 165
133 244
133 299
133 335
133 359
133 365
134 149
134 164
134 241
134 298
134 336
134 360
134 366
135 157
135 235
135 288
135 289
135 360
136 202
136 204
136 314
136 323
136 325
136 330
138 202
138 203
138 315
138 318
138 326
138 327
140 203
140 204
140 319
140 322
140 328
140 329
142 173
142 188
142 271
142 273
142 361
143 166
143 175
143 272
143 274
143 362
144 172
144 181
144 275
144 277
144 363
145 174
145 183
145 276
145 278
145 364
146 180
146 189
146 279
146 281
146 365
147 167
147 182
147 280
147 282
147 366
148 192
148 200
148 250
148 281
148 361
148 367
149 193
149 201
149 263
149 282
149 332
150 190
150 194
150 254
150 275
150 331
151 191
151 195
151 249
151 276
151 362
151 368
152 192
152 196
152 256
152 273
152 363
152 369
153 193
153 197
153 251
153 274
153 334
154 194
154 198
154 260
154 279
154 333
155 195
155 199
155 255
155 280
155 364
155 370
156 196
156 200
156 262
156 277
156 365
156 371
157 197
157 201
157 257
157 278
157 336
158 190
158 198
158 248
158 271
158 335
159 191
159 199
159 261
159 272
159 366
159 372
160 284
160 312
161 283
161 305
162 286
162 304
163 285
163 309
164 288
164 308
165 287
165 301
166 202
166 215
166 290
166 323
166 360
166 390
167 170
167 186
167 207
167 266
167 300
167 339
167 354
167 372
167 373
167 379
167 380
167 391
168 171
168 187
168 246
168 291
168 324
168 337
168 340
168 367
168 380
169 172
169 188
169 216
169 242
169 265
169 292
169 313
169 315
169 338
169 341
169 355
169 374
169 392
170 175
170 209
170 241
170 267
170 289
170 314
170 316
170 339
170 342
170 356
170 374
170 393
171 176
171 243
171 290
171 317
171 340
171 343
171 368
171 381
172 177
172 206
172 266
172 293
172 341
172 344
172 369
172 375
172 381
172 382
172 394
173 202
173 210
173 291
173 318
173 357
173 383
174 203
174 207
174 294
174 315
174 356
174 382
175 178
175 211
175 268
175 292
175 342
175 345
175 368
175 375
175 383
175 384
175 395
176 179
176 242
176 295
176 316
176 343
176 346
176 369
176 384
177 180
177 208
177 244
177 267
177 296
177 317
177 319
177 344
177 347
177 357
177 376
177 396
178 183
178 213
178 243
178 269
178 293
178 318
178 320
178 345
178 348
178 358
178 376
178 397
179 184
179 245
179 294
179 321
179 346
179 349
179 370
179 385
180 185
180 210
180 268
180 297
180 347
180 350
180 371
180 377
180 385
180 386
180 398
181 203
181 214
181 295
181 322
181 359
181 387
182 204
182 211
182 298
182 319
182 358
182 386
183 186
183 215
183 270
183 296
183 348
183 351
183 370
183 377
183 387
183 388
183 399
184 187
184 244
184 299
184 320
184 349
184 352
184 371
184 388
185 188
185 212
185 246
185 269
185 300
185 321
185 323
185 350
185 353
185 359
185 378
185 400
186 205
186 245
186 265
186 297
186 322
186 324
186 351
186 354
186 360
186 378
186 401
187 241
187 298
187 313
187 337
187 352
187 372
187 389
188 214
188 270
188 289
188 338
188 353
188 367
188 373
188 389
188 390
188 402
189 204
189 206
189 299
189 314
189 355
189 379
190 236
190 281
190 312
190 331
190 379
191 282
191 303
191 380
191 403
192 275
192 302
192 381
192 404
193 235
193 276
193 305
193 332
193 382
194 238
194 273
194 304
194 333
194 383
195 274
195 307
195 384
195 405
196 279
196 306
196 385
196 406
197 237
197 280
197 309
197 334
197 386
198 240
198 277
198 308
198 335
198 387
199 278
199 311
199 388
199 407
200 271
200 310
200 389
200 408
201 239
201 272
201 301
201 336
201 390
205 220
205 233
205 360
206 217
206 222
206 271
206 273
206 326
206 355
206 404
207 218
207 223
207 272
207 274
207 325
207 356
207 403
208 220
208 225
208 357
209 221
209 226
209 356
210 223
210 228
210 275
210 277
210 328
210 357
210 406
211 224
211 229
211 276
211 278
211 327
211 358
211 405
212 226
212 231
212 359
213 227
213 232
213 358
214 229
214 234
214 279
214 281
214 330
214 359
214 408
215 217
215 230
215 280
215 282
215 329
215 360
215 407
216 219
216 232
216 355
217 249
217 262
217 302
217 311
217 380
217 389
218 354
218 390
219 264
219 341
219 380
220 248
220 251
220 301
220 304
221 253
221 339
221 381
222 344
222 383
223 250
223 255
223 303
223 306
223 381
223 384
224 342
224 382
225 252
225 347
225 384
226 254
226 257
226 305
226 308
227 259
227 345
227 385
228 350
228 387
229 256
229 261
229 307
229 310
229 385
229 388
230 348
230 386
231 258
231 353
231 388
232 260
232 263
232 309
232 312
233 247
233 351
233 389
234 338
234 379
235 265
235 315
236 267
236 314
237 267
237 319
238 269
238 318
239 269
239 323
240 265
240 322
241 284
241 312
241 372
242 283
242 305
242 369
243 286
243 304
243 368
244 285
244 309
244 371
245 288
245 308
245 370
246 287
246 301
246 367
247 290
247 323
247 389
248 283
248 300
248 402
249 292
249 313
249 362
249 380
249 393
250 289
250 316
250 361
250 381
250 392
251 284
251 293
251 395
252 291
252 318
252 384
253 294
253 315
253 381
254 285
254 292
254 394
255 296
255 317
255 364
255 384
255 397
256 293
256 320
256 363
256 385
256 396
257 286
257 297
257 399
258 295
258 322
258 388
259 298
259 319
259 385
260 287
260 296
260 398
261 300
261 321
261 366
261 388
261 401
262 297
262 324
262 365
262 389
262 400
263 288
263 289
263 391
264 299
264 314
264 380
271 330
271 361
271 389
272 284
272 372
272 390
272 403
273 283
273 369
273 383
273 404
274 327
274 362
274 384
275 326
275 363
275 381
276 286
276 368
276 382
276 405
277 285
277 371
277 387
277 406
278 329
278 364
278 388
279 328
279 365
279 385
280 288
280 370
280 386
280 407
281 287
281 367
281 379
281 408
282 325
282 366
282 380
283 355
284 356
285 357
286 358
287 359
288 360
289 324
289 332
289 373
289 374
290 313
290 315
290 362
291 314
291 316
291 361
292 317
292 331
292 374
292 375
293 316
293 334
293 375
293 376
294 317
294 319
294 364
295 318
295 320
295 363
296 321
296 333
296 376
296 377
297 320
297 336
297 377
297 378
298 321
298 323
298 366
299 322
299 324
299 365
300 313
300 335
300 373
300 378
301 312
301 331
302 303
302 367
302 404
303 368
303 403
304 305
304 332
305 333
306 307
306 369
306 406
307 370
307 405
308 309
308 334
309 335
310 311
310 371
310 408
311 372
311 407
312 336
313 339
313 389
313 409
314 337
314 379
315 343
315 382
316 341
316 384
316 410
317 345
317 381
317 410
318 343
318 383
319 349
319 386
320 347
320 388
320 411
321 351
321 385
321 411
322 349
322 387
323 337
323 390
324 353
324 380
324 409
325 332
325 373
326 331
326 375
327 334
327 375
328 333
328 377
329 336
329 377
330 335
330 373
331 355
332 356
333 357
334 358
335 359
336 360
338 354
338 392
338 402
338 409
339 341
339 391
339 393
341 392
341 394
342 344
342 393
342 395
342 410
344 394
344 396
344 410
345 347
345 395
345 397
347 396
347 398
348 350
348 397
348 399
348 411
350 398
350 400
350 411
351 353
351 399
351 401
353 400
353 402
354 391
354 401
354 409
361 367
361 404
362 368
362 403
363 369
363 406
364 370
364 405
365 371
365 408
366 372
366 407
367 389
368 384
369 381
370 388
371 385
372 380
380 403
380 409
381 404
381 410
384 405
384 410
385 406
385 411
388 407
388 411
389 408
389 409
