0 181
0 182
0 183
0 184
0 185
0 186
0 187
0 188
0 189
0 190
0 191
0 192
0 193
0 194
0 195
0 196
0 197
0 198
0 199
0 200
0 201
0 202
0 203
0 204
0 205
0 206
1 155
1 157
1 166
1 173
1 177
1 188
1 202
1 209
1 217
1 226
1 236
1 237
1 247
2 156
2 167
2 174
2 178
2 190
2 210
2 218
2 225
2 227
2 238
2 248
2 249
3 159
3 167
3 175
3 179
3 192
3 206
3 207
3 211
3 226
3 228
3 238
3 240
3 250
3 251
4 158
4 168
4 176
4 180
4 182
4 194
4 208
4 212
4 227
4 229
4 239
4 241
4 252
4 253
5 161
5 168
5 169
5 177
5 184
5 209
5 213
5 228
5 230
5 241
5 254
5 255
6 160
6 162
6 163
6 170
6 178
6 186
6 198
6 210
6 214
6 229
6 231
6 242
6 256
7 147
7 149
7 163
7 171
7 179
7 189
7 201
7 211
7 215
7 230
7 232
7 242
7 257
8 148
8 164
8 172
8 180
8 203
8 212
8 216
8 231
8 233
8 243
8 258
8 259
9 151
9 164
9 169
9 173
9 193
9 205
9 213
9 217
9 232
9 234
9 243
9 245
9 260
9 261
10 150
10 165
10 170
10 174
10 181
10 195
10 214
10 218
10 233
10 235
10 244
10 246
10 262
10 263
11 153
11 165
11 171
11 175
11 197
11 207
11 215
11 234
11 236
11 246
11 264
11 265
12 152
12 154
12 166
12 172
12 176
12 185
12 199
12 208
12 216
12 225
12 235
12 237
12 266
13 140
13 141
13 165
13 167
13 220
13 224
13 226
13 235
13 249
13 264
13 267
13 278
14 142
14 143
14 166
14 168
14 219
14 221
14 225
14 228
14 253
14 268
14 269
15 144
15 145
15 163
15 167
15 220
15 222
15 227
15 230
15 250
15 270
15 271
16 135
16 146
16 164
16 168
16 221
16 223
16 229
16 232
16 254
16 259
16 272
16 273
17 136
17 137
17 163
17 165
17 222
17 224
17 231
17 234
17 263
17 274
17 275
18 138
18 139
18 164
18 166
18 219
18 223
18 233
18 236
18 260
18 276
18 277
19 139
19 142
19 172
19 177
19 268
19 277
19 295
19 302
20 136
20 145
20 171
20 178
20 271
20 274
20 298
20 299
21 112
21 120
21 123
21 140
21 143
21 210
21 217
22 114
22 115
22 124
22 135
22 144
22 209
22 214
23 109
23 117
23 126
23 137
23 146
23 211
23 216
24 111
24 118
24 121
24 138
24 141
24 208
24 215
25 159
25 250
25 265
25 281
25 295
26 155
26 161
26 247
26 254
26 283
26 296
27 156
27 162
27 249
27 256
27 282
27 297
28 158
28 253
28 258
28 284
28 298
29 151
29 255
29 260
29 289
29 299
30 147
30 153
30 257
30 264
30 291
30 300
31 148
31 154
31 259
31 266
31 290
31 301
32 150
32 248
32 263
32 292
32 302
33 80
33 81
33 101
33 119
33 123
33 158
33 172
33 178
33 227
33 235
33 281
33 293
33 306
33 308
33 330
33 331
34 82
34 83
34 99
34 103
34 120
34 124
34 153
34 173
34 179
34 228
34 236
34 279
34 309
34 311
35 83
35 84
35 100
35 105
35 121
35 125
35 154
35 160
35 174
35 180
35 225
35 229
35 283
35 310
35 312
36 85
36 86
36 102
36 107
36 122
36 126
36 147
36 157
36 169
36 175
36 226
36 230
36 282
36 313
36 315
37 86
37 87
37 104
37 108
37 115
37 123
37 148
37 170
37 176
37 227
37 231
37 286
37 314
37 316
38 71
38 88
38 106
38 116
38 124
38 159
38 171
38 177
38 228
38 232
38 284
38 288
38 305
38 317
38 319
38 332
39 71
39 72
39 91
39 117
39 125
39 150
39 172
39 178
39 229
39 233
39 285
39 289
39 304
39 318
39 320
39 332
40 73
40 74
40 89
40 93
40 118
40 126
40 161
40 173
40 179
40 230
40 234
40 287
40 321
40 323
41 74
41 75
41 90
41 95
41 115
41 119
41 152
41 162
41 174
41 180
41 231
41 235
41 291
41 322
41 324
42 76
42 77
42 92
42 97
42 116
42 120
42 149
42 155
42 169
42 175
42 232
42 236
42 290
42 325
42 327
43 77
43 78
43 94
43 98
43 117
43 121
43 156
43 170
43 176
43 225
43 233
43 294
43 326
43 328
44 79
44 80
44 96
44 118
44 122
44 151
44 171
44 177
44 226
44 234
44 280
44 292
44 303
44 307
44 329
44 331
45 79
45 82
45 97
45 132
45 187
45 202
45 209
45 277
45 309
46 80
46 83
46 98
46 102
46 133
46 188
46 210
46 217
46 282
46 294
46 307
46 310
46 333
47 81
47 84
47 104
47 130
47 190
47 204
47 218
47 270
47 308
48 83
48 86
48 101
48 106
48 131
48 134
48 182
48 192
48 207
48 212
48 281
48 284
48 311
48 314
48 335
49 85
49 88
49 103
49 127
49 184
49 196
49 213
49 269
49 317
50 71
50 86
50 89
50 105
50 132
50 186
50 209
50 214
50 283
50 287
50 315
50 318
50 337
51 72
51 87
51 90
51 133
51 187
51 198
51 210
51 274
51 316
52 73
52 88
52 107
52 128
52 189
52 200
52 215
52 271
52 321
53 71
53 74
53 92
53 108
53 129
53 201
53 211
53 216
53 286
53 290
53 319
53 322
53 338
54 72
54 75
54 94
54 134
54 191
54 203
54 212
54 276
54 320
55 74
55 77
55 91
55 96
55 127
55 130
55 195
55 205
55 213
55 218
55 289
55 292
55 323
55 326
55 340
56 76
56 79
56 93
56 131
56 183
56 197
56 207
56 275
56 329
57 77
57 80
57 95
57 99
57 128
57 199
57 208
57 215
57 279
57 291
57 327
57 330
57 342
58 78
58 81
58 100
58 129
58 185
58 200
58 216
58 268
58 328
59 66
59 79
59 113
59 144
59 165
59 265
59 278
59 331
60 65
60 84
60 103
60 111
60 139
60 168
60 252
60 269
61 68
61 82
61 100
61 114
61 146
61 166
61 247
61 268
61 336
62 67
62 87
62 107
62 112
62 141
62 163
62 256
62 271
62 334
63 70
63 85
63 104
63 109
63 136
63 167
63 251
63 270
64 69
64 72
64 113
64 143
64 164
64 258
64 273
64 332
65 88
65 110
65 138
65 168
65 255
65 272
65 332
66 75
66 93
66 114
66 145
66 165
66 262
66 275
67 73
67 90
67 111
67 140
67 163
67 257
67 274
67 341
68 78
68 97
68 109
68 135
68 166
68 266
68 277
68 339
69 76
69 94
69 112
69 142
69 164
69 261
69 276
70 81
70 110
70 137
70 167
70 248
70 267
70 331
71 77
71 83
71 129
71 132
71 150
71 159
71 171
71 178
71 186
71 201
71 238
71 246
71 281
71 292
71 309
71 328
71 333
71 342
71 351
71 358
72 78
72 84
72 113
72 133
72 172
72 187
72 203
72 239
72 277
72 293
72 310
73 79
73 85
73 111
73 179
73 189
73 204
73 240
73 270
73 307
73 334
73 343
74 80
74 86
74 130
74 152
74 161
74 173
74 180
74 205
74 237
74 241
74 279
74 283
74 303
74 308
74 313
74 333
74 335
74 343
74 344
74 352
75 81
75 87
75 114
75 134
75 162
75 174
75 181
75 191
75 267
75 314
75 336
75 344
76 82
76 88
76 112
76 131
76 155
76 169
76 183
76 193
76 272
76 311
76 334
76 345
77 83
77 127
77 149
77 156
77 170
77 175
77 195
77 238
77 242
77 282
77 286
77 304
77 312
77 317
77 335
77 337
77 345
77 346
77 353
78 84
78 109
78 176
78 185
78 196
78 239
78 269
78 318
78 336
78 346
79 85
79 113
79 132
79 171
79 187
79 197
79 240
79 274
79 288
79 315
80 86
80 128
80 133
80 151
80 158
80 172
80 177
80 188
80 199
80 241
80 243
80 284
80 289
80 316
80 321
80 337
80 338
80 354
80 355
81 87
81 110
81 129
81 178
81 190
81 200
81 244
81 271
81 285
81 322
82 88
82 114
82 173
82 191
82 202
82 245
82 276
82 319
82 339
82 347
83 134
83 153
83 160
83 174
83 179
83 192
83 242
83 246
83 287
83 291
83 305
83 320
83 325
83 338
83 340
83 347
83 348
83 356
84 111
84 130
84 154
84 180
84 194
84 204
84 273
84 326
84 341
84 348
85 109
85 127
85 147
85 175
85 196
85 206
85 278
85 323
85 339
85 349
86 131
86 148
86 157
86 169
86 176
86 182
86 237
86 243
86 290
86 294
86 306
86 324
86 329
86 340
86 342
86 349
86 350
86 357
87 112
87 170
87 183
87 198
87 244
87 275
87 330
87 341
87 350
88 110
88 128
88 177
88 184
88 200
88 245
88 268
88 280
88 327
89 118
89 144
89 209
89 250
89 296
89 329
89 358
89 359
90 119
90 210
90 252
90 330
90 343
91 125
91 139
91 218
91 302
91 312
91 361
92 120
92 146
92 211
92 254
92 309
92 352
92 362
93 126
93 207
93 247
93 315
93 344
93 363
94 121
94 212
94 256
94 310
94 345
94 364
95 115
95 141
95 208
95 249
95 316
95 353
95 365
96 122
96 136
96 213
96 299
96 313
96 366
97 116
97 209
97 251
97 319
97 346
98 117
98 143
98 210
98 253
98 297
98 320
98 355
98 368
99 124
99 138
99 215
99 260
99 300
99 317
99 354
99 369
100 125
100 216
100 262
100 318
100 347
101 119
101 145
101 212
101 298
101 324
101 371
102 126
102 140
102 217
102 264
102 321
102 356
102 372
103 120
103 213
103 257
103 327
103 348
103 373
104 115
104 218
104 266
104 322
104 349
104 374
105 121
105 135
105 214
105 259
105 328
105 357
105 375
106 116
106 142
106 207
106 295
106 325
106 376
107 122
107 215
107 261
107 307
107 350
108 123
108 137
108 216
108 263
108 301
108 308
108 351
108 378
109 251
109 266
109 269
109 278
109 359
109 361
110 248
110 255
110 268
110 271
110 362
110 365
111 252
111 257
111 270
111 273
111 366
111 368
112 256
112 261
112 272
112 275
112 369
112 371
113 258
113 265
113 274
113 277
113 372
113 375
114 247
114 262
114 267
114 276
114 376
114 378
115 144
115 150
115 227
115 235
115 342
115 378
115 379
115 380
116 139
116 161
116 228
116 236
116 295
116 335
116 360
116 362
116 381
116 382
117 146
117 152
117 162
117 225
117 229
117 297
117 333
117 336
117 361
117 364
117 383
117 384
118 141
118 149
118 155
118 226
118 230
118 296
118 334
118 337
118 363
118 366
118 385
118 386
119 136
119 156
119 227
119 231
119 298
119 335
119 365
119 367
119 387
119 388
120 143
120 151
120 228
120 232
120 338
120 369
120 389
120 390
121 138
121 158
121 229
121 233
121 337
121 368
121 391
121 392
122 145
122 153
122 230
122 234
122 299
122 340
122 370
122 372
122 393
122 394
123 140
123 154
123 160
123 231
123 235
123 301
123 338
123 341
123 371
123 374
123 395
123 396
124 135
124 147
124 157
124 232
124 236
124 300
124 339
124 342
124 373
124 376
124 397
124 398
125 142
125 148
125 225
125 233
125 302
125 340
125 375
125 377
125 399
125 400
126 137
126 159
126 226
126 234
126 333
126 359
126 401
126 402
127 187
127 282
127 343
127 361
127 380
128 182
128 191
128 280
128 284
128 343
128 345
128 365
128 384
129 183
129 192
129 281
129 285
129 344
129 346
129 362
129 385
130 187
130 283
130 346
130 366
130 389
131 200
131 290
131 347
131 371
131 392
132 195
132 204
132 288
132 292
132 347
132 349
132 375
132 396
133 196
133 205
133 289
133 293
133 348
133 350
133 372
133 397
134 200
134 291
134 350
134 376
134 401
135 138
135 168
135 209
135 239
135 277
135 379
136 145
136 165
136 218
136 270
136 331
136 382
137 140
137 163
137 211
137 267
137 383
138 166
138 208
138 272
138 386
139 142
139 164
139 213
139 269
139 332
139 387
140 167
140 210
140 240
140 274
140 390
141 144
141 165
141 215
141 244
141 271
141 391
142 168
142 212
142 276
142 332
142 394
143 146
143 166
143 217
143 273
143 395
144 163
144 214
144 278
144 398
145 167
145 207
145 275
145 331
145 399
146 164
146 216
146 245
146 268
146 402
147 171
147 264
147 342
147 401
148 172
148 266
148 306
148 379
149 179
149 251
149 334
149 358
149 382
150 174
150 248
150 353
150 383
151 169
151 255
151 352
151 386
152 176
152 252
152 336
152 355
152 387
153 171
153 257
153 305
153 390
154 172
154 259
154 338
154 392
155 177
155 254
155 337
155 389
156 178
156 256
156 304
156 391
157 173
157 261
157 339
157 354
157 394
158 180
158 258
158 357
158 395
159 175
159 265
159 356
159 398
160 170
160 262
160 341
160 351
160 399
161 177
161 247
161 303
161 402
162 178
162 249
162 333
162 380
163 220
163 224
164 219
164 221
164 360
164 364
165 220
165 222
165 363
165 367
166 221
166 223
167 222
167 224
167 370
167 374
168 219
168 223
168 373
168 377
169 209
169 217
169 282
169 311
169 329
169 352
169 381
169 402
170 210
170 218
170 294
170 312
170 330
170 351
170 380
170 383
171 207
171 211
171 280
171 284
171 309
171 315
171 382
171 385
172 208
172 212
172 281
172 285
172 310
172 316
172 384
172 387
173 209
173 213
173 287
173 313
173 319
173 354
173 386
173 389
174 210
174 214
174 283
174 314
174 320
174 353
174 388
174 391
175 211
175 215
175 290
175 317
175 323
175 356
175 390
175 393
176 212
176 216
176 286
176 318
176 324
176 355
176 392
176 395
177 213
177 217
177 288
177 292
177 321
177 327
177 394
177 397
178 214
178 218
178 289
178 293
178 322
178 328
178 396
178 399
179 207
179 215
179 279
179 307
179 325
179 358
179 398
179 401
180 208
180 216
180 291
180 308
180 326
180 357
180 379
180 400
181 185
181 203
181 220
181 235
182 186
182 227
182 342
182 343
183 187
183 204
183 334
183 344
184 189
184 206
184 219
184 228
185 190
185 221
185 225
185 336
186 229
186 333
186 345
187 191
187 343
187 346
188 192
188 226
188 337
188 344
189 193
189 220
189 230
189 334
190 194
190 222
190 227
191 196
191 336
191 345
192 228
192 338
192 346
193 197
193 221
193 232
194 198
194 223
194 229
195 199
195 233
195 337
195 347
196 200
196 339
196 348
197 202
197 222
197 234
198 203
198 224
198 231
198 341
199 235
199 338
199 349
200 204
200 347
200 350
201 205
201 232
201 342
201 348
202 206
202 223
202 236
202 339
203 219
203 233
204 341
204 349
205 234
205 333
205 350
206 224
206 226
207 250
207 265
207 311
207 329
207 382
207 401
207 403
208 252
208 312
208 330
208 379
208 384
209 247
209 254
209 309
209 315
209 381
209 386
209 404
210 249
210 256
210 310
210 316
210 383
210 388
210 405
211 251
211 313
211 319
211 385
211 390
212 253
212 258
212 314
212 320
212 387
212 392
212 406
213 255
213 260
213 317
213 323
213 389
213 394
213 407
214 262
214 318
214 324
214 391
214 396
215 257
215 264
215 321
215 327
215 393
215 398
215 408
216 259
216 266
216 322
216 328
216 395
216 400
216 409
217 261
217 307
217 325
217 397
217 402
218 248
218 263
218 308
218 326
218 380
218 399
218 410
225 238
225 310
225 328
225 361
225 377
226 237
226 240
226 307
226 313
226 359
226 363
227 241
227 308
227 314
227 365
228 238
228 311
228 317
228 362
229 239
229 242
229 312
229 318
229 364
229 368
230 241
230 315
230 321
230 366
230 370
231 243
231 316
231 322
231 367
231 371
232 242
232 245
232 319
232 325
232 369
232 373
233 246
233 320
233 326
233 375
234 243
234 323
234 329
234 372
235 237
235 244
235 324
235 330
235 374
235 378
236 246
236 309
236 327
236 360
236 376
237 281
237 292
238 279
238 283
241 282
241 286
242 284
242 289
243 287
243 291
246 290
246 294
247 344
247 402
248 383
249 380
250 385
251 346
251 382
252 343
252 387
253 384
254 389
255 386
256 345
256 391
257 348
257 390
258 395
259 392
260 397
261 350
261 394
262 347
262 399
263 396
264 401
265 398
266 349
266 379
267 278
267 378
267 401
268 269
268 362
268 384
269 361
269 381
270 271
270 366
270 388
271 365
271 385
272 273
272 369
272 392
273 368
273 389
274 275
274 372
274 396
275 371
275 393
276 277
276 376
276 400
277 375
277 397
278 359
278 380
279 342
279 343
280 334
281 295
281 335
281 403
281 411
282 297
282 333
282 345
282 405
282 412
283 296
283 337
283 344
283 404
283 413
284 298
284 335
284 406
284 414
285 336
286 338
286 346
287 337
287 347
288 339
289 299
289 340
289 407
289 415
290 301
290 338
290 349
290 409
290 416
291 300
291 342
291 348
291 408
291 417
292 302
292 340
292 410
292 418
293 341
294 333
294 350
295 403
295 419
296 303
296 404
297 304
297 405
298 406
298 420
299 407
299 420
300 305
300 408
301 306
301 409
302 410
302 419
303 329
303 352
303 382
304 320
304 353
304 387
305 317
305 356
305 394
306 308
306 357
306 399
308 378
309 358
309 362
309 411
310 364
310 412
311 360
311 411
312 353
312 361
312 412
313 352
313 366
313 413
314 367
314 414
315 363
315 413
316 355
316 365
316 414
317 369
320 368
321 354
321 372
321 415
322 374
322 416
323 370
323 415
324 357
324 371
324 416
325 356
325 376
325 417
326 377
326 418
327 373
327 417
328 351
328 375
328 418
329 359
331 403
331 410
332 406
332 407
333 344
333 383
333 402
334 345
334 385
335 343
335 346
335 382
335 387
336 344
336 384
337 345
337 386
337 391
338 348
338 390
338 395
339 349
339 397
340 347
340 350
340 394
340 399
341 348
341 396
342 349
342 379
342 398
351 410
352 404
353 405
354 407
355 406
356 408
357 409
358 403
359 381
360 402
360 411
361 380
361 412
362 385
362 411
363 382
363 413
364 387
364 412
365 384
365 414
366 389
366 413
367 391
367 414
368 388
369 393
370 390
370 415
371 392
371 416
372 397
372 415
373 394
373 417
374 399
374 416
375 396
375 418
376 401
376 417
377 379
377 418
378 400
382 403
383 405
386 404
387 406
394 407
395 409
398 408
399 410
403 411
403 419
404 413
405 412
406 414
406 420
407 415
407 420
408 417
409 416
410 418
410 419
