0 189
0 190
0 191
0 192
0 193
0 194
0 195
0 196
0 197
0 198
0 199
0 200
0 201
0 202
0 203
0 204
0 205
0 206
0 207
0 208
0 209
0 210
0 211
0 212
0 213
0 214
1 157
1 159
1 170
1 175
1 181
1 185
1 196
1 210
1 217
1 225
1 234
1 244
1 245
1 255
2 158
2 171
2 182
2 186
2 198
2 218
2 226
2 233
2 235
2 246
2 256
2 257
3 160
3 162
3 171
3 175
3 183
3 187
3 200
3 214
3 215
3 219
3 234
3 236
3 246
3 248
3 258
3 259
4 161
4 163
4 172
4 176
4 184
4 188
4 190
4 202
4 216
4 220
4 235
4 237
4 247
4 249
4 260
4 261
5 165
5 172
5 177
5 185
5 192
5 217
5 221
5 236
5 238
5 249
5 262
5 263
6 164
6 166
6 167
6 176
6 178
6 186
6 194
6 206
6 218
6 222
6 237
6 239
6 250
6 264
7 147
7 149
7 167
7 173
7 179
7 187
7 197
7 209
7 219
7 223
7 238
7 240
7 250
7 265
8 148
8 168
8 180
8 188
8 211
8 220
8 224
8 239
8 241
8 251
8 266
8 267
9 150
9 152
9 168
9 173
9 177
9 181
9 201
9 213
9 221
9 225
9 240
9 242
9 251
9 253
9 268
9 269
10 151
10 153
10 169
10 174
10 178
10 182
10 189
10 203
10 222
10 226
10 241
10 243
10 252
10 254
10 270
10 271
11 155
11 169
11 179
11 183
11 205
11 215
11 223
11 242
11 244
11 254
11 272
11 273
12 154
12 156
12 170
12 174
12 180
12 184
12 193
12 207
12 216
12 224
12 233
12 243
12 245
12 274
13 140
13 141
13 169
13 171
13 228
13 232
13 234
13 243
13 257
13 272
13 275
13 286
14 142
14 143
14 170
14 172
14 227
14 229
14 233
14 236
14 261
14 276
14 277
15 144
15 145
15 167
15 171
15 228
15 230
15 235
15 238
15 258
15 278
15 279
16 135
16 146
16 168
16 172
16 229
16 231
16 237
16 240
16 262
16 267
16 280
16 281
17 136
17 137
17 167
17 169
17 230
17 232
17 239
17 242
17 271
17 282
17 283
18 138
18 139
18 168
18 170
18 227
18 231
18 241
18 244
18 268
18 284
18 285
19 139
19 142
19 180
19 185
19 276
19 285
19 303
19 310
20 136
20 145
20 179
20 186
20 279
20 282
20 306
20 307
21 112
21 120
21 123
21 140
21 143
21 218
21 225
22 114
22 115
22 124
22 135
22 144
22 217
22 222
23 109
23 117
23 126
23 137
23 146
23 219
23 224
24 111
24 118
24 121
24 138
24 141
24 216
24 223
25 162
25 258
25 273
25 289
25 303
26 157
26 165
26 255
26 262
26 291
26 304
27 158
27 166
27 257
27 264
27 290
27 305
28 161
28 261
28 266
28 292
28 306
29 152
29 263
29 268
29 297
29 307
30 147
30 155
30 265
30 272
30 299
30 308
31 148
31 156
31 267
31 274
31 298
31 309
32 151
32 256
32 271
32 300
32 310
33 80
33 81
33 101
33 119
33 123
33 153
33 161
33 180
33 186
33 235
33 243
33 289
33 301
33 314
33 316
33 338
33 339
34 82
34 83
34 99
34 103
34 120
34 124
34 155
34 181
34 187
34 236
34 244
34 287
34 317
34 319
35 83
35 84
35 100
35 105
35 121
35 125
35 156
35 164
35 182
35 188
35 233
35 237
35 291
35 318
35 320
36 85
36 86
36 102
36 107
36 122
36 126
36 147
36 159
36 177
36 183
36 234
36 238
36 290
36 321
36 323
37 86
37 87
37 104
37 108
37 115
37 123
37 148
37 178
37 184
37 235
37 239
37 294
37 322
37 324
38 71
38 88
38 106
38 116
38 124
38 150
38 162
38 179
38 185
38 236
38 240
38 292
38 296
38 313
38 325
38 327
38 340
39 71
39 72
39 91
39 117
39 125
39 151
39 163
39 180
39 186
39 237
39 241
39 293
39 297
39 312
39 326
39 328
39 340
40 73
40 74
40 89
40 93
40 118
40 126
40 165
40 181
40 187
40 238
40 242
40 295
40 329
40 331
41 74
41 75
41 90
41 95
41 115
41 119
41 154
41 166
41 182
41 188
41 239
41 243
41 299
41 330
41 332
42 76
42 77
42 92
42 97
42 116
42 120
42 149
42 157
42 177
42 183
42 240
42 244
42 298
42 333
42 335
43 77
43 78
43 94
43 98
43 117
43 121
43 158
43 178
43 184
43 233
43 241
43 302
43 334
43 336
44 79
44 80
44 96
44 118
44 122
44 152
44 160
44 179
44 185
44 234
44 242
44 288
44 300
44 311
44 315
44 337
44 339
45 79
45 82
45 97
45 132
45 195
45 210
45 217
45 285
45 317
46 80
46 83
46 98
46 102
46 133
46 196
46 218
46 225
46 290
46 302
46 315
46 318
46 341
47 81
47 84
47 104
47 130
47 198
47 212
47 226
47 278
47 316
48 83
48 86
48 101
48 106
48 131
48 134
48 190
48 200
48 215
48 220
48 289
48 292
48 319
48 322
48 343
49 85
49 88
49 103
49 127
49 192
49 204
49 221
49 277
49 325
50 71
50 86
50 89
50 105
50 132
50 194
50 217
50 222
50 291
50 295
50 323
50 326
50 345
51 72
51 87
51 90
51 133
51 195
51 206
51 218
51 282
51 324
52 73
52 88
52 107
52 128
52 197
52 208
52 223
52 279
52 329
53 71
53 74
53 92
53 108
53 129
53 209
53 219
53 224
53 294
53 298
53 327
53 330
53 346
54 72
54 75
54 94
54 134
54 199
54 211
54 220
54 284
54 328
55 74
55 77
55 91
55 96
55 127
55 130
55 203
55 213
55 221
55 226
55 297
55 300
55 331
55 334
55 348
56 76
56 79
56 93
56 131
56 191
56 205
56 215
56 283
56 337
57 77
57 80
57 95
57 99
57 128
57 207
57 216
57 223
57 287
57 299
57 335
57 338
57 350
58 78
58 81
58 100
58 129
58 193
58 208
58 224
58 276
58 336
59 66
59 79
59 113
59 144
59 169
59 273
59 286
59 339
60 65
60 84
60 103
60 111
60 139
60 172
60 260
60 277
61 68
61 82
61 100
61 114
61 146
61 170
61 255
61 276
61 344
62 67
62 87
62 107
62 112
62 141
62 167
62 264
62 279
62 342
63 70
63 85
63 104
63 109
63 136
63 171
63 259
63 278
64 69
64 72
64 113
64 143
64 168
64 266
64 281
64 340
65 88
65 110
65 138
65 172
65 263
65 280
65 340
66 75
66 93
66 114
66 145
66 169
66 270
66 283
67 73
67 90
67 111
67 140
67 167
67 265
67 282
67 349
68 78
68 97
68 109
68 135
68 170
68 274
68 285
68 347
69 76
69 94
69 112
69 142
69 168
69 269
69 284
70 81
70 110
70 137
70 171
70 256
70 275
70 339
71 77
71 83
71 129
71 132
71 151
71 162
71 179
71 186
71 194
71 209
71 246
71 254
71 289
71 300
71 317
71 336
71 341
71 350
71 363
71 370
72 78
72 84
72 113
72 133
72 163
72 180
72 195
72 211
72 247
72 285
72 301
72 318
73 79
73 85
73 111
73 187
73 197
73 212
73 248
73 278
73 315
73 342
73 351
73 352
74 80
74 86
74 130
74 154
74 165
74 181
74 188
74 213
74 245
74 249
74 287
74 291
74 311
74 316
74 321
74 341
74 343
74 352
74 353
74 364
75 81
75 87
75 114
75 134
75 166
75 182
75 189
75 199
75 275
75 322
75 344
75 353
76 82
76 88
76 112
76 131
76 157
76 177
76 191
76 201
76 280
76 319
76 342
76 354
77 83
77 127
77 149
77 158
77 178
77 183
77 203
77 246
77 250
77 290
77 294
77 312
77 320
77 325
77 343
77 345
77 354
77 355
77 365
78 84
78 109
78 184
78 193
78 204
78 247
78 277
78 326
78 344
78 355
78 356
79 85
79 113
79 132
79 160
79 179
79 195
79 205
79 248
79 282
79 296
79 323
80 86
80 128
80 133
80 152
80 161
80 180
80 185
80 196
80 207
80 249
80 251
80 292
80 297
80 324
80 329
80 345
80 346
80 366
80 367
81 87
81 110
81 129
81 153
81 186
81 198
81 208
81 252
81 279
81 293
81 330
82 88
82 114
82 181
82 199
82 210
82 253
82 284
82 327
82 347
82 357
82 358
83 134
83 155
83 164
83 182
83 187
83 200
83 250
83 254
83 295
83 299
83 313
83 328
83 333
83 346
83 348
83 358
83 359
83 368
84 111
84 130
84 156
84 188
84 202
84 212
84 281
84 334
84 349
84 359
85 109
85 127
85 147
85 183
85 204
85 214
85 286
85 331
85 347
85 360
86 131
86 148
86 159
86 177
86 184
86 190
86 245
86 251
86 298
86 302
86 314
86 332
86 337
86 348
86 350
86 360
86 361
86 369
87 112
87 178
87 191
87 206
87 252
87 283
87 338
87 349
87 361
87 362
88 110
88 128
88 150
88 185
88 192
88 208
88 253
88 276
88 288
88 335
89 118
89 144
89 217
89 258
89 304
89 337
89 351
89 370
89 371
90 119
90 176
90 218
90 260
90 338
90 352
91 125
91 139
91 174
91 226
91 310
91 320
91 373
92 120
92 146
92 219
92 262
92 317
92 364
92 374
93 126
93 215
93 255
93 323
93 353
93 375
94 121
94 220
94 264
94 318
94 354
94 376
95 115
95 141
95 216
95 257
95 324
95 365
95 377
96 122
96 136
96 173
96 221
96 307
96 321
96 378
97 116
97 175
97 217
97 259
97 327
97 355
98 117
98 143
98 218
98 261
98 305
98 328
98 356
98 367
98 380
99 124
99 138
99 223
99 268
99 308
99 325
99 357
99 366
99 381
100 125
100 174
100 224
100 270
100 326
100 358
101 119
101 145
101 176
101 220
101 306
101 332
101 383
102 126
102 140
102 225
102 272
102 329
102 368
102 384
103 120
103 221
103 265
103 335
103 359
103 385
104 115
104 226
104 274
104 330
104 360
104 386
105 121
105 135
105 222
105 267
105 336
105 369
105 387
106 116
106 142
106 175
106 215
106 303
106 333
106 388
107 122
107 173
107 223
107 269
107 315
107 361
108 123
108 137
108 224
108 271
108 309
108 316
108 362
108 363
108 390
109 259
109 274
109 277
109 286
109 371
109 373
110 256
110 263
110 276
110 279
110 374
110 377
111 260
111 265
111 278
111 281
111 378
111 380
112 264
112 269
112 280
112 283
112 381
112 383
113 266
113 273
113 282
113 285
113 384
113 387
114 255
114 270
114 275
114 284
114 388
114 390
115 144
115 151
115 163
115 235
115 243
115 350
115 390
115 391
115 392
116 139
116 165
116 236
116 244
116 303
116 343
116 372
116 374
116 393
116 394
117 146
117 154
117 166
117 233
117 237
117 305
117 341
117 344
117 373
117 376
117 395
117 396
118 141
118 149
118 157
118 234
118 238
118 304
118 342
118 345
118 375
118 378
118 397
118 398
119 136
119 158
119 235
119 239
119 306
119 343
119 377
119 379
119 399
119 400
120 143
120 152
120 160
120 236
120 240
120 346
120 381
120 401
120 402
121 138
121 153
121 161
121 237
121 241
121 345
121 380
121 403
121 404
122 145
122 155
122 238
122 242
122 307
122 348
122 382
122 384
122 405
122 406
123 140
123 156
123 164
123 239
123 243
123 309
123 346
123 349
123 383
123 386
123 407
123 408
124 135
124 147
124 159
124 240
124 244
124 308
124 347
124 350
124 385
124 388
124 409
124 410
125 142
125 148
125 233
125 241
125 310
125 348
125 387
125 389
125 411
125 412
126 137
126 150
126 162
126 234
126 242
126 341
126 371
126 413
126 414
127 195
127 290
127 352
127 373
127 392
128 190
128 199
128 288
128 292
128 352
128 354
128 377
128 396
129 191
129 200
129 289
129 293
129 353
129 355
129 374
129 397
130 195
130 291
130 355
130 378
130 401
131 208
131 298
131 358
131 383
131 404
132 203
132 212
132 296
132 300
132 358
132 360
132 387
132 408
133 204
133 213
133 297
133 301
133 359
133 361
133 384
133 409
134 208
134 299
134 361
134 388
134 413
135 138
135 172
135 217
135 247
135 285
135 391
136 145
136 169
136 226
136 278
136 339
136 394
137 140
137 167
137 219
137 275
137 395
138 170
138 216
138 280
138 398
139 142
139 168
139 221
139 277
139 340
139 399
140 171
140 218
140 248
140 282
140 402
141 144
141 169
141 223
141 252
141 279
141 403
142 172
142 220
142 284
142 340
142 406
143 146
143 170
143 225
143 281
143 407
144 167
144 222
144 286
144 410
145 171
145 215
145 283
145 339
145 411
146 168
146 224
146 253
146 276
146 414
147 179
147 272
147 350
147 413
148 180
148 274
148 314
148 391
149 187
149 259
149 342
149 370
149 394
150 181
150 341
150 393
151 182
151 256
151 365
151 395
152 177
152 263
152 364
152 398
153 178
153 345
153 400
154 184
154 260
154 344
154 367
154 399
155 179
155 265
155 313
155 402
156 180
156 267
156 346
156 404
157 185
157 262
157 345
157 401
158 186
158 264
158 312
158 403
159 181
159 269
159 347
159 366
159 406
160 187
160 346
160 405
161 188
161 266
161 369
161 407
162 183
162 273
162 368
162 410
163 184
163 350
163 412
164 178
164 270
164 349
164 363
164 411
165 185
165 255
165 311
165 414
166 186
166 257
166 341
166 392
167 228
167 232
167 351
167 362
168 227
168 229
168 372
168 376
169 228
169 230
169 375
169 379
170 229
170 231
170 356
170 357
171 230
171 232
171 382
171 386
172 227
172 231
172 385
172 389
173 197
173 213
173 315
173 321
174 193
174 203
174 320
174 326
175 200
175 210
175 327
175 333
176 190
176 206
176 332
176 338
177 217
177 225
177 290
177 319
177 337
177 364
177 393
177 414
178 218
178 226
178 302
178 320
178 338
178 363
178 392
178 395
179 215
179 219
179 288
179 292
179 317
179 323
179 394
179 397
180 216
180 220
180 289
180 293
180 318
180 324
180 396
180 399
181 217
181 221
181 295
181 321
181 327
181 366
181 398
181 401
182 218
182 222
182 291
182 322
182 328
182 365
182 400
182 403
183 219
183 223
183 298
183 325
183 331
183 368
183 402
183 405
184 220
184 224
184 294
184 326
184 332
184 367
184 404
184 407
185 221
185 225
185 296
185 300
185 329
185 335
185 406
185 409
186 222
186 226
186 297
186 301
186 330
186 336
186 408
186 411
187 215
187 223
187 287
187 315
187 333
187 370
187 410
187 413
188 216
188 224
188 299
188 316
188 334
188 369
188 391
188 412
189 193
189 211
189 228
189 243
189 362
190 194
190 235
190 350
190 352
191 195
191 212
191 342
191 353
192 197
192 214
192 227
192 236
193 198
193 229
193 233
193 344
194 237
194 341
194 351
194 354
195 199
195 352
195 355
196 200
196 234
196 345
196 353
196 356
197 201
197 228
197 238
197 342
198 202
198 230
198 235
199 204
199 344
199 354
200 236
200 346
200 355
201 205
201 229
201 240
201 357
202 206
202 231
202 237
202 356
203 207
203 241
203 345
203 358
204 208
204 347
204 359
205 210
205 230
205 242
206 211
206 232
206 239
206 349
207 243
207 346
207 357
207 360
208 212
208 358
208 361
209 213
209 240
209 350
209 359
209 362
210 214
210 231
210 244
210 347
211 227
211 241
212 349
212 360
213 242
213 341
213 361
214 232
214 234
214 351
215 258
215 273
215 319
215 337
215 394
215 413
215 415
216 260
216 320
216 338
216 391
216 396
217 255
217 262
217 317
217 323
217 393
217 398
217 416
218 257
218 264
218 318
218 324
218 395
218 400
218 417
219 259
219 321
219 327
219 397
219 402
220 261
220 266
220 322
220 328
220 399
220 404
220 418
221 263
221 268
221 325
221 331
221 401
221 406
221 419
222 270
222 326
222 332
222 403
222 408
223 265
223 272
223 329
223 335
223 405
223 410
223 420
224 267
224 274
224 330
224 336
224 407
224 412
224 421
225 269
225 315
225 333
225 409
225 414
226 256
226 271
226 316
226 334
226 392
226 411
226 422
233 246
233 318
233 336
233 373
233 389
234 245
234 248
234 315
234 321
234 371
234 375
235 249
235 316
235 322
235 377
236 246
236 319
236 325
236 374
237 247
237 250
237 320
237 326
237 376
237 380
238 249
238 323
238 329
238 378
238 382
239 251
239 324
239 330
239 379
239 383
240 250
240 253
240 327
240 333
240 381
240 385
241 254
241 328
241 334
241 387
242 251
242 331
242 337
242 384
243 245
243 252
243 332
243 338
243 386
243 390
244 254
244 317
244 335
244 372
244 388
245 289
245 300
246 287
246 291
249 290
249 294
250 292
250 297
251 295
251 299
254 298
254 302
255 353
255 414
256 395
257 392
258 351
258 397
259 355
259 394
260 352
260 399
261 356
261 396
262 401
263 398
264 354
264 403
265 359
265 402
266 407
267 404
268 357
268 409
269 361
269 406
270 358
270 411
271 362
271 408
272 413
273 410
274 360
274 391
275 286
275 390
275 413
276 277
276 374
276 396
277 373
277 393
278 279
278 378
278 400
279 377
279 397
280 281
280 381
280 404
281 380
281 401
282 283
282 384
282 408
283 383
283 405
284 285
284 388
284 412
285 387
285 409
286 371
286 392
287 350
287 352
288 342
289 303
289 343
289 415
289 423
290 305
290 341
290 354
290 417
290 424
291 304
291 345
291 353
291 416
291 425
292 306
292 343
292 418
292 426
293 344
294 346
294 355
295 345
295 358
296 347
297 307
297 348
297 419
297 427
298 309
298 346
298 360
298 421
298 428
299 308
299 350
299 359
299 420
299 429
300 310
300 348
300 422
300 430
301 349
302 341
302 361
303 415
303 431
304 311
304 416
305 312
305 417
306 418
306 432
307 419
307 432
308 313
308 420
309 314
309 421
310 422
310 431
311 337
311 364
311 394
312 328
312 365
312 399
313 325
313 368
313 406
314 316
314 369
314 411
316 390
317 370
317 374
317 423
318 376
318 424
319 372
319 423
320 365
320 373
320 424
321 364
321 378
321 425
322 379
322 426
323 375
323 425
324 367
324 377
324 426
325 381
328 380
329 366
329 384
329 427
330 386
330 428
331 382
331 427
332 369
332 383
332 428
333 368
333 388
333 429
334 389
334 430
335 385
335 429
336 363
336 387
336 430
337 371
339 415
339 422
340 418
340 419
341 353
341 395
341 414
342 351
342 354
342 397
343 352
343 355
343 394
343 399
344 353
344 356
344 396
345 354
345 398
345 403
346 359
346 402
346 407
347 357
347 360
347 409
348 358
348 361
348 406
348 411
349 359
349 362
349 408
350 360
350 391
350 410
351 370
356 367
357 366
362 363
363 422
364 416
365 417
366 419
367 418
368 420
369 421
370 415
371 393
372 414
372 423
373 392
373 424
374 397
374 423
375 394
375 425
376 399
376 424
377 396
377 426
378 401
378 425
379 403
379 426
380 400
381 405
382 402
382 427
383 404
383 428
384 409
384 427
385 406
385 429
386 411
386 428
387 408
387 430
388 413
388 429
389 391
389 430
390 412
394 415
395 417
398 416
399 418
406 419
407 421
410 420
411 422
415 423
415 431
416 425
417 424
418 426
418 432
419 427
419 432
420 429
421 428
422 430
422 431
