0 184
0 185
0 186
0 187
0 188
0 189
0 190
0 191
0 192
0 193
0 194
0 195
0 196
0 197
0 198
0 199
0 200
0 201
0 202
0 203
0 204
0 205
0 206
0 207
1 142
1 143
1 152
1 157
1 170
1 174
1 182
1 191
1 203
1 210
1 218
1 221
1 231
1 232
1 234
1 250
2 144
2 158
2 162
2 171
2 175
2 205
2 211
2 219
2 220
2 222
2 233
2 235
3 145
3 157
3 165
3 172
3 176
3 194
3 208
3 212
3 221
3 223
3 235
3 237
4 146
4 147
4 153
4 158
4 173
4 177
4 181
4 184
4 196
4 209
4 213
4 222
4 224
4 236
4 238
4 251
5 148
5 149
5 153
5 159
5 166
5 174
5 178
5 187
5 199
5 210
5 214
5 223
5 225
5 238
5 240
5 252
6 150
6 154
6 164
6 167
6 175
6 189
6 211
6 215
6 224
6 226
6 239
6 241
7 133
7 159
7 161
7 168
7 176
7 202
7 212
7 216
7 225
7 227
7 241
7 243
8 134
8 135
8 151
8 154
8 169
8 177
8 183
8 192
8 204
8 213
8 217
8 226
8 228
8 242
8 244
8 253
9 136
9 137
9 151
9 155
9 166
9 170
9 180
9 195
9 207
9 214
9 218
9 227
9 229
9 244
9 246
9 254
10 138
10 156
10 160
10 167
10 171
10 197
10 215
10 219
10 228
10 230
10 245
10 247
11 139
11 155
11 163
11 168
11 172
11 186
11 208
11 216
11 229
11 231
11 247
11 249
12 140
12 141
12 152
12 156
12 169
12 173
12 179
12 188
12 200
12 209
12 217
12 220
12 230
12 232
12 248
12 255
13 111
13 112
13 125
13 126
13 152
13 153
13 220
13 223
13 250
13 251
14 100
14 117
14 118
14 129
14 151
14 153
14 224
14 227
14 252
14 253
15 105
15 106
15 121
15 122
15 151
15 152
15 228
15 231
15 254
15 255
16 94
16 111
16 146
16 191
16 204
16 236
17 96
17 109
17 113
17 131
17 141
17 165
17 183
17 192
17 206
17 232
17 237
17 257
17 263
17 264
18 95
18 110
18 114
18 132
18 148
18 162
18 180
18 193
18 207
18 233
18 238
18 256
18 265
18 266
19 97
19 112
19 143
19 184
19 195
19 234
20 98
20 117
20 134
20 188
20 199
20 242
21 88
21 101
21 115
21 132
21 147
21 161
21 179
21 190
21 200
21 238
21 243
21 259
21 269
21 270
22 99
22 102
22 116
22 130
22 136
22 164
22 182
22 191
22 201
22 239
22 244
22 258
22 271
22 272
23 89
23 100
23 149
23 192
23 203
23 240
24 90
24 105
24 140
24 196
24 207
24 248
25 92
25 103
25 107
25 130
25 135
25 163
25 181
25 184
25 198
25 244
25 249
25 261
25 275
25 276
26 91
26 104
26 108
26 131
26 142
26 160
26 178
26 185
26 199
26 232
26 245
26 260
26 277
26 278
27 93
27 106
27 137
27 187
27 200
27 246
28 93
28 96
28 123
28 126
28 211
28 218
28 264
29 95
29 98
29 125
29 128
29 208
29 213
29 265
30 88
30 97
30 118
30 127
30 210
30 215
30 270
31 90
31 99
31 120
31 129
31 212
31 217
31 271
32 89
32 92
32 119
32 122
32 214
32 219
32 276
33 91
33 94
33 121
33 124
33 209
33 216
33 277
34 67
34 68
34 80
34 92
34 96
34 138
34 146
34 169
34 175
34 222
34 230
34 261
34 263
34 303
34 304
35 69
35 70
35 82
35 93
35 97
35 148
35 170
35 176
35 223
35 231
35 262
35 287
35 289
36 70
36 71
36 85
36 94
36 98
36 141
36 171
36 177
36 220
36 224
36 267
36 288
36 290
37 72
37 73
37 87
37 95
37 99
37 133
37 143
37 166
37 172
37 221
37 225
37 258
37 266
37 292
37 305
38 73
38 74
38 84
38 88
38 96
38 134
38 144
38 167
38 173
38 222
38 226
38 257
38 269
38 291
38 306
39 58
39 75
39 86
39 89
39 97
39 136
39 168
39 174
39 223
39 227
39 268
39 293
39 295
40 58
40 59
40 77
40 90
40 98
40 147
40 169
40 175
40 224
40 228
40 273
40 294
40 296
41 60
41 61
41 79
41 91
41 99
41 139
41 149
41 170
41 176
41 225
41 229
41 260
41 272
41 298
41 307
42 61
42 62
42 76
42 88
42 92
42 140
42 150
42 171
42 177
42 226
42 230
42 259
42 275
42 297
42 308
43 63
43 64
43 78
43 89
43 93
43 142
43 166
43 172
43 227
43 231
43 274
43 299
43 301
44 64
44 65
44 81
44 90
44 94
44 135
44 167
44 173
44 220
44 228
44 279
44 300
44 302
45 66
45 67
45 83
45 91
45 95
45 137
45 145
45 168
45 174
45 221
45 229
45 256
45 278
45 286
45 309
46 66
46 69
46 106
46 113
46 190
46 203
46 210
46 264
46 287
46 309
46 310
47 67
47 70
47 81
47 107
47 114
47 164
47 191
47 205
47 211
47 218
47 266
47 279
47 280
47 281
47 286
47 288
47 311
48 70
48 73
48 86
48 109
48 116
48 163
48 184
48 194
48 208
48 213
48 263
48 268
48 281
48 282
48 289
48 291
48 312
49 71
49 74
49 110
49 117
49 185
49 196
49 209
49 265
49 290
49 306
49 313
50 72
50 75
50 101
50 112
50 187
50 198
50 214
50 270
50 293
50 305
50 314
51 58
51 73
51 85
51 102
51 113
51 160
51 189
51 199
51 210
51 215
51 267
51 272
51 282
51 283
51 292
51 294
51 315
52 58
52 61
52 78
52 104
52 115
52 165
52 192
52 202
52 212
52 217
52 269
52 274
52 283
52 284
52 295
52 297
52 316
53 59
53 62
53 105
53 116
53 193
53 204
53 213
53 271
53 296
53 308
53 317
54 60
54 63
54 100
54 107
54 195
54 206
54 218
54 276
54 299
54 307
54 318
55 61
55 64
55 77
55 101
55 108
55 162
55 197
55 207
55 214
55 219
55 273
55 278
55 284
55 285
55 298
55 300
55 319
56 64
56 67
56 82
56 103
56 110
56 161
56 186
56 200
56 209
56 216
56 262
56 275
56 280
56 285
56 301
56 303
56 320
57 65
57 68
57 104
57 111
57 188
57 201
57 217
57 277
57 302
57 304
57 321
58 64
58 70
58 104
58 113
58 168
58 175
58 189
58 202
58 235
58 247
58 263
58 278
58 287
58 302
58 311
58 320
58 322
58 333
58 334
58 351
59 65
59 71
59 105
59 114
59 147
59 169
59 190
59 204
59 236
59 248
59 265
59 288
59 321
59 334
59 335
60 66
60 72
60 107
60 139
60 176
60 206
60 237
60 249
60 286
60 310
60 336
61 67
61 73
61 108
61 115
61 140
61 149
61 170
61 177
61 192
61 207
61 232
61 238
61 262
61 267
61 311
61 312
61 323
61 324
61 336
61 337
62 68
62 74
62 116
62 150
62 171
62 193
62 233
62 239
62 291
62 313
62 337
63 69
63 75
63 100
63 109
63 142
63 166
63 185
63 195
63 234
63 240
63 264
63 289
63 314
63 338
63 339
64 70
64 101
64 110
64 167
64 172
64 186
64 197
64 235
64 241
64 266
64 269
64 290
64 293
64 312
64 315
64 325
64 326
64 339
64 340
65 71
65 102
65 111
65 135
65 173
65 188
65 198
65 236
65 242
65 271
65 294
65 313
65 340
65 341
66 72
66 113
66 145
66 168
66 190
66 237
66 243
66 292
66 314
66 342
67 73
67 103
67 114
67 137
67 146
67 169
67 174
67 191
67 200
67 238
67 244
67 268
67 273
67 315
67 316
67 327
67 328
67 342
67 343
68 74
68 104
68 138
68 175
68 201
68 239
68 245
68 297
68 317
68 343
69 75
69 106
69 115
69 148
69 170
69 193
69 203
69 240
69 246
69 270
69 295
69 318
69 344
69 345
70 107
70 116
70 171
70 176
70 194
70 205
70 241
70 247
70 272
70 275
70 296
70 299
70 316
70 319
70 329
70 330
70 345
70 346
71 108
71 117
71 141
71 177
71 196
71 206
71 242
71 248
71 277
71 300
71 317
71 346
71 347
72 101
72 133
72 172
72 198
72 243
72 249
72 298
72 318
72 348
73 102
73 109
73 134
73 143
73 166
73 173
73 184
73 199
73 232
73 244
73 274
73 279
73 319
73 320
73 331
73 332
73 348
73 349
74 110
74 144
74 167
74 185
74 233
74 245
74 303
74 321
74 349
75 103
75 112
75 136
75 174
75 187
75 201
75 234
75 246
75 276
75 301
75 310
75 350
75 351
76 92
76 211
76 303
76 336
77 98
77 122
77 156
77 219
77 255
77 290
77 322
77 335
78 93
78 129
78 159
78 212
78 252
78 287
78 325
78 338
79 99
79 208
79 292
79 337
80 96
80 215
80 291
80 342
81 90
81 126
81 158
81 211
81 251
81 296
81 326
81 341
82 97
82 121
82 155
82 216
82 254
82 293
82 329
82 344
83 91
83 212
83 298
83 343
84 88
84 219
84 297
84 348
85 94
85 118
85 154
85 215
85 253
85 302
85 330
85 347
86 89
86 125
86 157
86 208
86 250
86 299
86 333
86 350
87 95
87 216
87 286
87 349
88 127
88 147
88 179
88 222
88 230
88 320
88 323
88 358
88 359
89 122
89 139
89 149
89 223
89 231
89 310
89 312
89 322
89 352
90 129
90 140
90 150
90 220
90 224
90 311
90 313
90 325
90 353
91 124
91 142
91 178
91 221
91 225
91 315
91 324
91 360
91 361
92 119
92 135
92 181
92 222
92 226
92 312
92 327
92 362
92 363
93 126
93 137
93 145
93 223
93 227
93 314
93 316
93 326
93 354
94 121
94 138
94 146
94 224
94 228
94 315
94 317
94 329
94 355
95 128
95 148
95 180
95 225
95 229
95 319
95 328
95 364
95 365
96 123
96 141
96 183
96 226
96 230
96 316
96 331
96 366
96 367
97 118
97 133
97 143
97 227
97 231
97 318
97 320
97 330
97 356
98 125
98 134
98 144
98 220
98 228
98 319
98 321
98 333
98 357
99 120
99 136
99 182
99 221
99 229
99 311
99 332
99 368
99 369
100 189
100 203
100 264
100 350
100 352
100 369
100 370
101 132
101 190
101 205
101 266
101 336
101 351
101 359
101 371
102 191
102 206
102 279
102 334
102 337
102 372
103 184
103 193
103 268
103 336
103 339
103 374
104 131
104 185
104 194
104 263
104 337
104 340
104 360
104 375
105 186
105 196
105 265
105 341
105 353
105 362
105 376
106 187
106 197
106 270
106 338
106 354
106 361
106 376
107 130
107 189
107 198
107 272
107 339
107 342
107 363
107 377
108 190
108 199
108 267
108 340
108 343
108 378
109 192
109 201
109 274
109 342
109 345
109 380
110 132
110 193
110 202
110 269
110 343
110 346
110 364
110 381
111 194
111 204
111 271
111 347
111 355
111 366
111 382
112 195
112 205
112 276
112 344
112 356
112 365
112 382
113 131
113 197
113 206
113 278
113 345
113 348
113 367
113 383
114 198
114 207
114 273
114 346
114 349
114 384
115 185
115 200
115 262
115 348
115 351
115 386
116 130
116 186
116 201
116 275
116 334
116 349
116 368
116 387
117 188
117 202
117 277
117 335
117 357
117 358
117 370
118 121
118 153
118 210
118 236
118 358
119 128
119 219
119 249
120 123
120 212
120 239
121 152
121 209
121 234
121 361
122 125
122 151
122 214
122 242
122 362
123 211
123 237
124 127
124 216
124 245
125 153
125 213
125 240
125 365
126 129
126 152
126 218
126 248
126 366
127 215
127 243
128 208
128 233
129 151
129 217
129 246
129 369
130 372
130 374
131 378
131 380
132 384
132 386
133 168
133 320
133 368
134 169
134 183
134 257
134 321
134 358
134 388
134 394
135 177
135 251
135 304
135 312
135 388
136 170
136 250
136 305
136 311
136 389
137 166
137 180
137 256
137 314
137 361
137 389
137 395
138 167
138 315
138 363
139 172
139 312
139 360
140 173
140 179
140 259
140 313
140 362
140 390
140 396
141 169
141 253
141 306
141 316
141 390
142 174
142 252
142 307
142 315
142 391
143 170
143 182
143 258
143 318
143 365
143 391
143 397
144 171
144 319
144 367
145 176
145 316
145 364
146 177
146 181
146 261
146 317
146 366
146 392
146 398
147 173
147 255
147 308
147 320
147 392
148 166
148 254
148 309
148 319
148 393
149 174
149 178
149 260
149 310
149 369
149 393
149 399
150 175
150 311
150 359
151 335
151 338
151 352
151 353
152 341
152 344
152 354
152 355
153 347
153 350
153 356
153 357
154 164
154 189
154 204
154 288
154 302
154 394
155 163
155 186
155 195
155 289
155 293
155 395
156 160
156 188
156 197
156 290
156 294
156 396
157 165
157 194
157 203
157 295
157 299
157 397
158 162
158 196
158 205
158 296
158 300
158 398
159 161
159 187
159 202
159 287
159 301
159 399
160 232
160 267
160 322
160 400
161 238
161 262
161 325
161 401
162 238
162 273
162 326
162 402
163 244
163 268
163 329
163 403
164 244
164 279
164 330
164 404
165 232
165 274
165 333
165 405
166 210
166 218
166 266
166 289
166 369
167 211
167 219
167 279
167 290
167 303
167 359
167 394
167 400
168 208
168 212
168 268
168 287
168 292
168 360
168 395
168 401
169 209
169 213
169 263
169 288
169 362
170 210
170 214
170 272
170 295
170 361
171 211
171 215
171 267
171 291
171 296
171 363
171 396
171 402
172 212
172 216
172 274
172 293
172 298
172 364
172 397
172 403
173 213
173 217
173 269
173 294
173 366
174 214
174 218
174 278
174 301
174 365
175 215
175 219
175 273
175 297
175 302
175 367
175 398
175 404
176 208
176 216
176 262
176 286
176 299
176 368
176 399
176 405
177 209
177 217
177 275
177 300
177 358
178 309
178 324
179 306
179 323
180 305
180 328
181 308
181 327
182 307
182 332
183 304
183 331
184 189
184 205
184 222
184 261
184 281
184 320
184 336
184 350
184 372
184 387
184 388
184 406
184 424
185 190
185 206
185 257
185 321
185 337
185 351
185 370
185 373
185 400
185 412
186 191
186 207
186 231
186 280
186 312
186 334
186 371
186 374
186 401
186 407
186 412
186 413
186 425
187 223
187 310
187 338
187 389
187 414
188 220
188 313
188 335
188 388
188 413
189 192
189 224
189 282
189 311
189 339
189 372
189 375
189 400
189 407
189 414
189 415
189 426
190 193
190 256
190 314
190 336
190 340
190 373
190 376
190 401
190 415
191 194
191 221
191 258
191 281
191 315
191 337
191 341
191 374
191 377
191 389
191 408
191 427
192 197
192 226
192 257
192 283
192 312
192 338
192 342
192 375
192 378
192 390
192 408
192 428
193 198
193 259
193 313
193 339
193 343
193 376
193 379
193 402
193 416
194 199
194 223
194 282
194 316
194 340
194 377
194 380
194 403
194 409
194 416
194 417
194 429
195 227
195 314
195 344
195 391
195 418
196 224
196 317
196 341
196 390
196 417
197 200
197 228
197 284
197 315
197 345
197 378
197 381
197 402
197 409
197 418
197 419
197 430
198 201
198 258
198 318
198 342
198 346
198 379
198 382
198 403
198 419
199 202
199 225
199 260
199 283
199 319
199 343
199 347
199 380
199 383
199 391
199 410
199 431
200 205
200 230
200 259
200 285
200 316
200 344
200 348
200 381
200 384
200 392
200 410
200 432
201 206
201 261
201 317
201 345
201 349
201 382
201 385
201 404
201 420
202 207
202 227
202 284
202 320
202 346
202 383
202 386
202 405
202 411
202 420
202 421
202 433
203 231
203 318
203 350
203 393
203 422
204 228
204 321
204 347
204 392
204 421
205 220
205 280
205 319
205 351
205 384
205 387
205 404
205 411
205 422
205 423
205 434
206 260
206 310
206 334
206 348
206 370
206 385
206 405
206 423
207 229
207 256
207 285
207 311
207 335
207 349
207 371
207 386
207 393
207 406
207 435
208 289
208 333
208 368
208 412
208 436
209 255
209 290
209 303
209 324
209 358
209 413
210 252
210 287
210 292
210 323
210 361
210 414
211 288
211 326
211 363
211 415
211 437
212 295
212 325
212 360
212 416
212 438
213 251
213 291
213 296
213 328
213 362
213 417
214 254
214 293
214 298
214 327
214 365
214 418
215 294
215 330
215 367
215 419
215 439
216 301
216 329
216 364
216 420
216 440
217 253
217 297
217 302
217 332
217 366
217 421
218 250
218 286
218 299
218 331
218 369
218 422
219 300
219 322
219 359
219 423
219 441
220 235
220 248
220 288
220 302
220 357
220 388
220 441
221 232
221 237
221 286
221 389
221 442
222 233
222 238
222 291
222 388
222 443
223 235
223 240
223 289
223 293
223 354
223 389
223 438
224 236
224 241
224 290
224 294
224 353
224 390
224 437
225 238
225 243
225 292
225 391
225 444
226 239
226 244
226 297
226 390
226 445
227 241
227 246
227 295
227 299
227 356
227 391
227 440
228 242
228 247
228 296
228 300
228 355
228 392
228 439
229 244
229 249
229 298
229 393
229 446
230 232
230 245
230 303
230 392
230 447
231 234
231 247
231 287
231 301
231 352
231 393
231 436
232 263
232 278
232 323
232 332
233 265
233 387
233 412
234 374
234 414
235 262
235 267
235 322
235 325
235 412
235 415
235 442
235 443
236 372
236 413
237 264
237 377
237 415
238 266
238 269
238 324
238 327
239 271
239 375
239 416
240 380
240 418
241 268
241 273
241 326
241 329
241 416
241 419
241 444
241 445
242 378
242 417
243 270
243 383
243 419
244 272
244 275
244 328
244 331
245 277
245 381
245 420
246 386
246 422
247 274
247 279
247 330
247 333
247 420
247 423
247 446
247 447
248 384
248 421
249 276
249 371
249 423
250 281
250 350
251 281
251 341
252 283
252 338
253 283
253 347
254 285
254 344
255 285
255 335
256 309
256 324
256 401
256 442
257 306
257 323
257 400
257 443
258 305
258 328
258 403
258 444
259 308
259 327
259 402
259 445
260 307
260 332
260 405
260 446
261 304
261 331
261 404
261 447
262 320
262 336
262 399
262 412
262 435
263 304
263 312
263 334
263 426
263 443
264 310
264 338
264 415
265 313
265 335
265 412
266 305
266 311
266 339
266 425
266 442
267 315
267 337
267 396
267 415
267 428
268 312
268 342
268 395
268 416
268 427
269 306
269 316
269 340
269 430
269 445
270 314
270 344
270 419
271 317
271 341
271 416
272 307
272 315
272 345
272 429
272 444
273 319
273 343
273 398
273 419
273 432
274 316
274 348
274 397
274 420
274 431
275 308
275 320
275 346
275 434
275 447
276 318
276 350
276 423
277 321
277 347
277 420
278 309
278 319
278 351
278 433
278 446
279 311
279 349
279 394
279 423
279 424
287 309
287 401
287 414
287 436
288 353
288 394
288 415
289 352
289 395
289 412
290 306
290 400
290 413
290 437
293 305
293 403
293 418
293 438
294 355
294 396
294 419
295 354
295 397
295 416
296 308
296 402
296 417
296 439
299 307
299 405
299 422
299 440
300 357
300 398
300 423
301 356
301 399
301 420
302 304
302 404
302 421
302 441
304 388
305 389
306 390
307 391
308 392
309 393
310 336
310 350
310 399
311 337
311 351
311 369
311 406
311 407
311 442
312 336
312 340
312 362
312 407
312 408
312 443
313 337
313 341
313 396
314 338
314 342
314 395
315 339
315 343
315 361
315 408
315 409
315 444
316 342
316 346
316 366
316 409
316 410
316 445
317 343
317 347
317 398
318 344
318 348
318 397
319 345
319 349
319 365
319 410
319 411
319 446
320 334
320 348
320 358
320 406
320 411
320 447
321 335
321 349
321 394
322 333
322 400
322 441
323 324
323 358
323 443
324 361
324 442
325 326
325 401
325 438
326 402
326 437
327 328
327 362
327 445
328 365
328 444
329 330
329 403
329 440
330 404
330 439
331 332
331 366
331 447
332 369
332 446
333 405
333 436
334 372
334 412
335 373
335 413
336 371
336 415
336 448
337 375
337 412
337 448
338 373
338 414
339 374
339 415
340 378
340 416
341 379
341 417
342 377
342 419
342 449
343 381
343 416
343 449
344 379
344 418
345 380
345 419
346 384
346 420
347 385
347 421
348 383
348 423
348 450
349 387
349 420
349 450
350 385
350 422
351 386
351 423
352 369
352 407
353 362
353 407
354 361
354 409
355 366
355 409
356 365
356 411
357 358
357 411
358 388
361 389
362 390
365 391
366 392
369 393
371 387
371 425
371 435
372 374
372 424
372 426
372 448
374 425
374 427
374 448
375 377
375 426
375 428
377 427
377 429
378 380
378 428
378 430
378 449
380 429
380 431
380 449
381 383
381 430
381 432
383 431
383 433
384 386
384 432
384 434
384 450
386 433
386 435
386 450
387 424
387 434
388 443
389 442
390 445
391 444
392 447
393 446
394 400
394 441
395 401
395 438
396 402
396 437
397 403
397 440
398 404
398 439
399 405
399 436
400 415
401 412
402 419
403 416
404 423
405 420
412 436
412 443
412 448
415 437
415 442
415 448
416 438
416 445
416 449
419 439
419 444
419 449
420 440
420 447
420 450
423 441
423 446
423 450
