p cnf 2040 13578
1 2 3 4 0
-1 -2 0
-1 -3 0
-1 -4 0
-2 -3 0
-2 -4 0
-3 -4 0
5 6 7 8 0
-5 -6 0
-5 -7 0
-5 -8 0
-6 -7 0
-6 -8 0
-7 -8 0
9 10 11 12 0
-9 -10 0
-9 -11 0
-9 -12 0
-10 -11 0
-10 -12 0
-11 -12 0
13 14 15 16 0
-13 -14 0
-13 -15 0
-13 -16 0
-14 -15 0
-14 -16 0
-15 -16 0
17 18 19 20 0
-17 -18 0
-17 -19 0
-17 -20 0
-18 -19 0
-18 -20 0
-19 -20 0
21 22 23 24 0
-21 -22 0
-21 -23 0
-21 -24 0
-22 -23 0
-22 -24 0
-23 -24 0
25 26 27 28 0
-25 -26 0
-25 -27 0
-25 -28 0
-26 -27 0
-26 -28 0
-27 -28 0
29 30 31 32 0
-29 -30 0
-29 -31 0
-29 -32 0
-30 -31 0
-30 -32 0
-31 -32 0
33 34 35 36 0
-33 -34 0
-33 -35 0
-33 -36 0
-34 -35 0
-34 -36 0
-35 -36 0
37 38 39 40 0
-37 -38 0
-37 -39 0
-37 -40 0
-38 -39 0
-38 -40 0
-39 -40 0
41 42 43 44 0
-41 -42 0
-41 -43 0
-41 -44 0
-42 -43 0
-42 -44 0
-43 -44 0
45 46 47 48 0
-45 -46 0
-45 -47 0
-45 -48 0
-46 -47 0
-46 -48 0
-47 -48 0
49 50 51 52 0
-49 -50 0
-49 -51 0
-49 -52 0
-50 -51 0
-50 -52 0
-51 -52 0
53 54 55 56 0
-53 -54 0
-53 -55 0
-53 -56 0
-54 -55 0
-54 -56 0
-55 -56 0
57 58 59 60 0
-57 -58 0
-57 -59 0
-57 -60 0
-58 -59 0
-58 -60 0
-59 -60 0
61 62 63 64 0
-61 -62 0
-61 -63 0
-61 -64 0
-62 -63 0
-62 -64 0
-63 -64 0
65 66 67 68 0
-65 -66 0
-65 -67 0
-65 -68 0
-66 -67 0
-66 -68 0
-67 -68 0
69 70 71 72 0
-69 -70 0
-69 -71 0
-69 -72 0
-70 -71 0
-70 -72 0
-71 -72 0
73 74 75 76 0
-73 -74 0
-73 -75 0
-73 -76 0
-74 -75 0
-74 -76 0
-75 -76 0
77 78 79 80 0
-77 -78 0
-77 -79 0
-77 -80 0
-78 -79 0
-78 -80 0
-79 -80 0
81 82 83 84 0
-81 -82 0
-81 -83 0
-81 -84 0
-82 -83 0
-82 -84 0
-83 -84 0
85 86 87 88 0
-85 -86 0
-85 -87 0
-85 -88 0
-86 -87 0
-86 -88 0
-87 -88 0
89 90 91 92 0
-89 -90 0
-89 -91 0
-89 -92 0
-90 -91 0
-90 -92 0
-91 -92 0
93 94 95 96 0
-93 -94 0
-93 -95 0
-93 -96 0
-94 -95 0
-94 -96 0
-95 -96 0
97 98 99 100 0
-97 -98 0
-97 -99 0
-97 -100 0
-98 -99 0
-98 -100 0
-99 -100 0
101 102 103 104 0
-101 -102 0
-101 -103 0
-101 -104 0
-102 -103 0
-102 -104 0
-103 -104 0
105 106 107 108 0
-105 -106 0
-105 -107 0
-105 -108 0
-106 -107 0
-106 -108 0
-107 -108 0
109 110 111 112 0
-109 -110 0
-109 -111 0
-109 -112 0
-110 -111 0
-110 -112 0
-111 -112 0
113 114 115 116 0
-113 -114 0
-113 -115 0
-113 -116 0
-114 -115 0
-114 -116 0
-115 -116 0
117 118 119 120 0
-117 -118 0
-117 -119 0
-117 -120 0
-118 -119 0
-118 -120 0
-119 -120 0
121 122 123 124 0
-121 -122 0
-121 -123 0
-121 -124 0
-122 -123 0
-122 -124 0
-123 -124 0
125 126 127 128 0
-125 -126 0
-125 -127 0
-125 -128 0
-126 -127 0
-126 -128 0
-127 -128 0
129 130 131 132 0
-129 -130 0
-129 -131 0
-129 -132 0
-130 -131 0
-130 -132 0
-131 -132 0
133 134 135 136 0
-133 -134 0
-133 -135 0
-133 -136 0
-134 -135 0
-134 -136 0
-135 -136 0
137 138 139 140 0
-137 -138 0
-137 -139 0
-137 -140 0
-138 -139 0
-138 -140 0
-139 -140 0
141 142 143 144 0
-141 -142 0
-141 -143 0
-141 -144 0
-142 -143 0
-142 -144 0
-143 -144 0
145 146 147 148 0
-145 -146 0
-145 -147 0
-145 -148 0
-146 -147 0
-146 -148 0
-147 -148 0
149 150 151 152 0
-149 -150 0
-149 -151 0
-149 -152 0
-150 -151 0
-150 -152 0
-151 -152 0
153 154 155 156 0
-153 -154 0
-153 -155 0
-153 -156 0
-154 -155 0
-154 -156 0
-155 -156 0
157 158 159 160 0
-157 -158 0
-157 -159 0
-157 -160 0
-158 -159 0
-158 -160 0
-159 -160 0
161 162 163 164 0
-161 -162 0
-161 -163 0
-161 -164 0
-162 -163 0
-162 -164 0
-163 -164 0
165 166 167 168 0
-165 -166 0
-165 -167 0
-165 -168 0
-166 -167 0
-166 -168 0
-167 -168 0
169 170 171 172 0
-169 -170 0
-169 -171 0
-169 -172 0
-170 -171 0
-170 -172 0
-171 -172 0
173 174 175 176 0
-173 -174 0
-173 -175 0
-173 -176 0
-174 -175 0
-174 -176 0
-175 -176 0
177 178 179 180 0
-177 -178 0
-177 -179 0
-177 -180 0
-178 -179 0
-178 -180 0
-179 -180 0
181 182 183 184 0
-181 -182 0
-181 -183 0
-181 -184 0
-182 -183 0
-182 -184 0
-183 -184 0
185 186 187 188 0
-185 -186 0
-185 -187 0
-185 -188 0
-186 -187 0
-186 -188 0
-187 -188 0
189 190 191 192 0
-189 -190 0
-189 -191 0
-189 -192 0
-190 -191 0
-190 -192 0
-191 -192 0
193 194 195 196 0
-193 -194 0
-193 -195 0
-193 -196 0
-194 -195 0
-194 -196 0
-195 -196 0
197 198 199 200 0
-197 -198 0
-197 -199 0
-197 -200 0
-198 -199 0
-198 -200 0
-199 -200 0
201 202 203 204 0
-201 -202 0
-201 -203 0
-201 -204 0
-202 -203 0
-202 -204 0
-203 -204 0
205 206 207 208 0
-205 -206 0
-205 -207 0
-205 -208 0
-206 -207 0
-206 -208 0
-207 -208 0
209 210 211 212 0
-209 -210 0
-209 -211 0
-209 -212 0
-210 -211 0
-210 -212 0
-211 -212 0
213 214 215 216 0
-213 -214 0
-213 -215 0
-213 -216 0
-214 -215 0
-214 -216 0
-215 -216 0
217 218 219 220 0
-217 -218 0
-217 -219 0
-217 -220 0
-218 -219 0
-218 -220 0
-219 -220 0
221 222 223 224 0
-221 -222 0
-221 -223 0
-221 -224 0
-222 -223 0
-222 -224 0
-223 -224 0
225 226 227 228 0
-225 -226 0
-225 -227 0
-225 -228 0
-226 -227 0
-226 -228 0
-227 -228 0
229 230 231 232 0
-229 -230 0
-229 -231 0
-229 -232 0
-230 -231 0
-230 -232 0
-231 -232 0
233 234 235 236 0
-233 -234 0
-233 -235 0
-233 -236 0
-234 -235 0
-234 -236 0
-235 -236 0
237 238 239 240 0
-237 -238 0
-237 -239 0
-237 -240 0
-238 -239 0
-238 -240 0
-239 -240 0
241 242 243 244 0
-241 -242 0
-241 -243 0
-241 -244 0
-242 -243 0
-242 -244 0
-243 -244 0
245 246 247 248 0
-245 -246 0
-245 -247 0
-245 -248 0
-246 -247 0
-246 -248 0
-247 -248 0
249 250 251 252 0
-249 -250 0
-249 -251 0
-249 -252 0
-250 -251 0
-250 -252 0
-251 -252 0
253 254 255 256 0
-253 -254 0
-253 -255 0
-253 -256 0
-254 -255 0
-254 -256 0
-255 -256 0
257 258 259 260 0
-257 -258 0
-257 -259 0
-257 -260 0
-258 -259 0
-258 -260 0
-259 -260 0
261 262 263 264 0
-261 -262 0
-261 -263 0
-261 -264 0
-262 -263 0
-262 -264 0
-263 -264 0
265 266 267 268 0
-265 -266 0
-265 -267 0
-265 -268 0
-266 -267 0
-266 -268 0
-267 -268 0
269 270 271 272 0
-269 -270 0
-269 -271 0
-269 -272 0
-270 -271 0
-270 -272 0
-271 -272 0
273 274 275 276 0
-273 -274 0
-273 -275 0
-273 -276 0
-274 -275 0
-274 -276 0
-275 -276 0
277 278 279 280 0
-277 -278 0
-277 -279 0
-277 -280 0
-278 -279 0
-278 -280 0
-279 -280 0
281 282 283 284 0
-281 -282 0
-281 -283 0
-281 -284 0
-282 -283 0
-282 -284 0
-283 -284 0
285 286 287 288 0
-285 -286 0
-285 -287 0
-285 -288 0
-286 -287 0
-286 -288 0
-287 -288 0
289 290 291 292 0
-289 -290 0
-289 -291 0
-289 -292 0
-290 -291 0
-290 -292 0
-291 -292 0
293 294 295 296 0
-293 -294 0
-293 -295 0
-293 -296 0
-294 -295 0
-294 -296 0
-295 -296 0
297 298 299 300 0
-297 -298 0
-297 -299 0
-297 -300 0
-298 -299 0
-298 -300 0
-299 -300 0
301 302 303 304 0
-301 -302 0
-301 -303 0
-301 -304 0
-302 -303 0
-302 -304 0
-303 -304 0
305 306 307 308 0
-305 -306 0
-305 -307 0
-305 -308 0
-306 -307 0
-306 -308 0
-307 -308 0
309 310 311 312 0
-309 -310 0
-309 -311 0
-309 -312 0
-310 -311 0
-310 -312 0
-311 -312 0
313 314 315 316 0
-313 -314 0
-313 -315 0
-313 -316 0
-314 -315 0
-314 -316 0
-315 -316 0
317 318 319 320 0
-317 -318 0
-317 -319 0
-317 -320 0
-318 -319 0
-318 -320 0
-319 -320 0
321 322 323 324 0
-321 -322 0
-321 -323 0
-321 -324 0
-322 -323 0
-322 -324 0
-323 -324 0
325 326 327 328 0
-325 -326 0
-325 -327 0
-325 -328 0
-326 -327 0
-326 -328 0
-327 -328 0
329 330 331 332 0
-329 -330 0
-329 -331 0
-329 -332 0
-330 -331 0
-330 -332 0
-331 -332 0
333 334 335 336 0
-333 -334 0
-333 -335 0
-333 -336 0
-334 -335 0
-334 -336 0
-335 -336 0
337 338 339 340 0
-337 -338 0
-337 -339 0
-337 -340 0
-338 -339 0
-338 -340 0
-339 -340 0
341 342 343 344 0
-341 -342 0
-341 -343 0
-341 -344 0
-342 -343 0
-342 -344 0
-343 -344 0
345 346 347 348 0
-345 -346 0
-345 -347 0
-345 -348 0
-346 -347 0
-346 -348 0
-347 -348 0
349 350 351 352 0
-349 -350 0
-349 -351 0
-349 -352 0
-350 -351 0
-350 -352 0
-351 -352 0
353 354 355 356 0
-353 -354 0
-353 -355 0
-353 -356 0
-354 -355 0
-354 -356 0
-355 -356 0
357 358 359 360 0
-357 -358 0
-357 -359 0
-357 -360 0
-358 -359 0
-358 -360 0
-359 -360 0
361 362 363 364 0
-361 -362 0
-361 -363 0
-361 -364 0
-362 -363 0
-362 -364 0
-363 -364 0
365 366 367 368 0
-365 -366 0
-365 -367 0
-365 -368 0
-366 -367 0
-366 -368 0
-367 -368 0
369 370 371 372 0
-369 -370 0
-369 -371 0
-369 -372 0
-370 -371 0
-370 -372 0
-371 -372 0
373 374 375 376 0
-373 -374 0
-373 -375 0
-373 -376 0
-374 -375 0
-374 -376 0
-375 -376 0
377 378 379 380 0
-377 -378 0
-377 -379 0
-377 -380 0
-378 -379 0
-378 -380 0
-379 -380 0
381 382 383 384 0
-381 -382 0
-381 -383 0
-381 -384 0
-382 -383 0
-382 -384 0
-383 -384 0
385 386 387 388 0
-385 -386 0
-385 -387 0
-385 -388 0
-386 -387 0
-386 -388 0
-387 -388 0
389 390 391 392 0
-389 -390 0
-389 -391 0
-389 -392 0
-390 -391 0
-390 -392 0
-391 -392 0
393 394 395 396 0
-393 -394 0
-393 -395 0
-393 -396 0
-394 -395 0
-394 -396 0
-395 -396 0
397 398 399 400 0
-397 -398 0
-397 -399 0
-397 -400 0
-398 -399 0
-398 -400 0
-399 -400 0
401 402 403 404 0
-401 -402 0
-401 -403 0
-401 -404 0
-402 -403 0
-402 -404 0
-403 -404 0
405 406 407 408 0
-405 -406 0
-405 -407 0
-405 -408 0
-406 -407 0
-406 -408 0
-407 -408 0
409 410 411 412 0
-409 -410 0
-409 -411 0
-409 -412 0
-410 -411 0
-410 -412 0
-411 -412 0
413 414 415 416 0
-413 -414 0
-413 -415 0
-413 -416 0
-414 -415 0
-414 -416 0
-415 -416 0
417 418 419 420 0
-417 -418 0
-417 -419 0
-417 -420 0
-418 -419 0
-418 -420 0
-419 -420 0
421 422 423 424 0
-421 -422 0
-421 -423 0
-421 -424 0
-422 -423 0
-422 -424 0
-423 -424 0
425 426 427 428 0
-425 -426 0
-425 -427 0
-425 -428 0
-426 -427 0
-426 -428 0
-427 -428 0
429 430 431 432 0
-429 -430 0
-429 -431 0
-429 -432 0
-430 -431 0
-430 -432 0
-431 -432 0
433 434 435 436 0
-433 -434 0
-433 -435 0
-433 -436 0
-434 -435 0
-434 -436 0
-435 -436 0
437 438 439 440 0
-437 -438 0
-437 -439 0
-437 -440 0
-438 -439 0
-438 -440 0
-439 -440 0
441 442 443 444 0
-441 -442 0
-441 -443 0
-441 -444 0
-442 -443 0
-442 -444 0
-443 -444 0
445 446 447 448 0
-445 -446 0
-445 -447 0
-445 -448 0
-446 -447 0
-446 -448 0
-447 -448 0
449 450 451 452 0
-449 -450 0
-449 -451 0
-449 -452 0
-450 -451 0
-450 -452 0
-451 -452 0
453 454 455 456 0
-453 -454 0
-453 -455 0
-453 -456 0
-454 -455 0
-454 -456 0
-455 -456 0
457 458 459 460 0
-457 -458 0
-457 -459 0
-457 -460 0
-458 -459 0
-458 -460 0
-459 -460 0
461 462 463 464 0
-461 -462 0
-461 -463 0
-461 -464 0
-462 -463 0
-462 -464 0
-463 -464 0
465 466 467 468 0
-465 -466 0
-465 -467 0
-465 -468 0
-466 -467 0
-466 -468 0
-467 -468 0
469 470 471 472 0
-469 -470 0
-469 -471 0
-469 -472 0
-470 -471 0
-470 -472 0
-471 -472 0
473 474 475 476 0
-473 -474 0
-473 -475 0
-473 -476 0
-474 -475 0
-474 -476 0
-475 -476 0
477 478 479 480 0
-477 -478 0
-477 -479 0
-477 -480 0
-478 -479 0
-478 -480 0
-479 -480 0
481 482 483 484 0
-481 -482 0
-481 -483 0
-481 -484 0
-482 -483 0
-482 -484 0
-483 -484 0
485 486 487 488 0
-485 -486 0
-485 -487 0
-485 -488 0
-486 -487 0
-486 -488 0
-487 -488 0
489 490 491 492 0
-489 -490 0
-489 -491 0
-489 -492 0
-490 -491 0
-490 -492 0
-491 -492 0
493 494 495 496 0
-493 -494 0
-493 -495 0
-493 -496 0
-494 -495 0
-494 -496 0
-495 -496 0
497 498 499 500 0
-497 -498 0
-497 -499 0
-497 -500 0
-498 -499 0
-498 -500 0
-499 -500 0
501 502 503 504 0
-501 -502 0
-501 -503 0
-501 -504 0
-502 -503 0
-502 -504 0
-503 -504 0
505 506 507 508 0
-505 -506 0
-505 -507 0
-505 -508 0
-506 -507 0
-506 -508 0
-507 -508 0
509 510 511 512 0
-509 -510 0
-509 -511 0
-509 -512 0
-510 -511 0
-510 -512 0
-511 -512 0
513 514 515 516 0
-513 -514 0
-513 -515 0
-513 -516 0
-514 -515 0
-514 -516 0
-515 -516 0
517 518 519 520 0
-517 -518 0
-517 -519 0
-517 -520 0
-518 -519 0
-518 -520 0
-519 -520 0
521 522 523 524 0
-521 -522 0
-521 -523 0
-521 -524 0
-522 -523 0
-522 -524 0
-523 -524 0
525 526 527 528 0
-525 -526 0
-525 -527 0
-525 -528 0
-526 -527 0
-526 -528 0
-527 -528 0
529 530 531 532 0
-529 -530 0
-529 -531 0
-529 -532 0
-530 -531 0
-530 -532 0
-531 -532 0
533 534 535 536 0
-533 -534 0
-533 -535 0
-533 -536 0
-534 -535 0
-534 -536 0
-535 -536 0
537 538 539 540 0
-537 -538 0
-537 -539 0
-537 -540 0
-538 -539 0
-538 -540 0
-539 -540 0
541 542 543 544 0
-541 -542 0
-541 -543 0
-541 -544 0
-542 -543 0
-542 -544 0
-543 -544 0
545 546 547 548 0
-545 -546 0
-545 -547 0
-545 -548 0
-546 -547 0
-546 -548 0
-547 -548 0
549 550 551 552 0
-549 -550 0
-549 -551 0
-549 -552 0
-550 -551 0
-550 -552 0
-551 -552 0
553 554 555 556 0
-553 -554 0
-553 -555 0
-553 -556 0
-554 -555 0
-554 -556 0
-555 -556 0
557 558 559 560 0
-557 -558 0
-557 -559 0
-557 -560 0
-558 -559 0
-558 -560 0
-559 -560 0
561 562 563 564 0
-561 -562 0
-561 -563 0
-561 -564 0
-562 -563 0
-562 -564 0
-563 -564 0
565 566 567 568 0
-565 -566 0
-565 -567 0
-565 -568 0
-566 -567 0
-566 -568 0
-567 -568 0
569 570 571 572 0
-569 -570 0
-569 -571 0
-569 -572 0
-570 -571 0
-570 -572 0
-571 -572 0
573 574 575 576 0
-573 -574 0
-573 -575 0
-573 -576 0
-574 -575 0
-574 -576 0
-575 -576 0
577 578 579 580 0
-577 -578 0
-577 -579 0
-577 -580 0
-578 -579 0
-578 -580 0
-579 -580 0
581 582 583 584 0
-581 -582 0
-581 -583 0
-581 -584 0
-582 -583 0
-582 -584 0
-583 -584 0
585 586 587 588 0
-585 -586 0
-585 -587 0
-585 -588 0
-586 -587 0
-586 -588 0
-587 -588 0
589 590 591 592 0
-589 -590 0
-589 -591 0
-589 -592 0
-590 -591 0
-590 -592 0
-591 -592 0
593 594 595 596 0
-593 -594 0
-593 -595 0
-593 -596 0
-594 -595 0
-594 -596 0
-595 -596 0
597 598 599 600 0
-597 -598 0
-597 -599 0
-597 -600 0
-598 -599 0
-598 -600 0
-599 -600 0
601 602 603 604 0
-601 -602 0
-601 -603 0
-601 -604 0
-602 -603 0
-602 -604 0
-603 -604 0
605 606 607 608 0
-605 -606 0
-605 -607 0
-605 -608 0
-606 -607 0
-606 -608 0
-607 -608 0
609 610 611 612 0
-609 -610 0
-609 -611 0
-609 -612 0
-610 -611 0
-610 -612 0
-611 -612 0
613 614 615 616 0
-613 -614 0
-613 -615 0
-613 -616 0
-614 -615 0
-614 -616 0
-615 -616 0
617 618 619 620 0
-617 -618 0
-617 -619 0
-617 -620 0
-618 -619 0
-618 -620 0
-619 -620 0
621 622 623 624 0
-621 -622 0
-621 -623 0
-621 -624 0
-622 -623 0
-622 -624 0
-623 -624 0
625 626 627 628 0
-625 -626 0
-625 -627 0
-625 -628 0
-626 -627 0
-626 -628 0
-627 -628 0
629 630 631 632 0
-629 -630 0
-629 -631 0
-629 -632 0
-630 -631 0
-630 -632 0
-631 -632 0
633 634 635 636 0
-633 -634 0
-633 -635 0
-633 -636 0
-634 -635 0
-634 -636 0
-635 -636 0
637 638 639 640 0
-637 -638 0
-637 -639 0
-637 -640 0
-638 -639 0
-638 -640 0
-639 -640 0
641 642 643 644 0
-641 -642 0
-641 -643 0
-641 -644 0
-642 -643 0
-642 -644 0
-643 -644 0
645 646 647 648 0
-645 -646 0
-645 -647 0
-645 -648 0
-646 -647 0
-646 -648 0
-647 -648 0
649 650 651 652 0
-649 -650 0
-649 -651 0
-649 -652 0
-650 -651 0
-650 -652 0
-651 -652 0
653 654 655 656 0
-653 -654 0
-653 -655 0
-653 -656 0
-654 -655 0
-654 -656 0
-655 -656 0
657 658 659 660 0
-657 -658 0
-657 -659 0
-657 -660 0
-658 -659 0
-658 -660 0
-659 -660 0
661 662 663 664 0
-661 -662 0
-661 -663 0
-661 -664 0
-662 -663 0
-662 -664 0
-663 -664 0
665 666 667 668 0
-665 -666 0
-665 -667 0
-665 -668 0
-666 -667 0
-666 -668 0
-667 -668 0
669 670 671 672 0
-669 -670 0
-669 -671 0
-669 -672 0
-670 -671 0
-670 -672 0
-671 -672 0
673 674 675 676 0
-673 -674 0
-673 -675 0
-673 -676 0
-674 -675 0
-674 -676 0
-675 -676 0
677 678 679 680 0
-677 -678 0
-677 -679 0
-677 -680 0
-678 -679 0
-678 -680 0
-679 -680 0
681 682 683 684 0
-681 -682 0
-681 -683 0
-681 -684 0
-682 -683 0
-682 -684 0
-683 -684 0
685 686 687 688 0
-685 -686 0
-685 -687 0
-685 -688 0
-686 -687 0
-686 -688 0
-687 -688 0
689 690 691 692 0
-689 -690 0
-689 -691 0
-689 -692 0
-690 -691 0
-690 -692 0
-691 -692 0
693 694 695 696 0
-693 -694 0
-693 -695 0
-693 -696 0
-694 -695 0
-694 -696 0
-695 -696 0
697 698 699 700 0
-697 -698 0
-697 -699 0
-697 -700 0
-698 -699 0
-698 -700 0
-699 -700 0
701 702 703 704 0
-701 -702 0
-701 -703 0
-701 -704 0
-702 -703 0
-702 -704 0
-703 -704 0
705 706 707 708 0
-705 -706 0
-705 -707 0
-705 -708 0
-706 -707 0
-706 -708 0
-707 -708 0
709 710 711 712 0
-709 -710 0
-709 -711 0
-709 -712 0
-710 -711 0
-710 -712 0
-711 -712 0
713 714 715 716 0
-713 -714 0
-713 -715 0
-713 -716 0
-714 -715 0
-714 -716 0
-715 -716 0
717 718 719 720 0
-717 -718 0
-717 -719 0
-717 -720 0
-718 -719 0
-718 -720 0
-719 -720 0
721 722 723 724 0
-721 -722 0
-721 -723 0
-721 -724 0
-722 -723 0
-722 -724 0
-723 -724 0
725 726 727 728 0
-725 -726 0
-725 -727 0
-725 -728 0
-726 -727 0
-726 -728 0
-727 -728 0
729 730 731 732 0
-729 -730 0
-729 -731 0
-729 -732 0
-730 -731 0
-730 -732 0
-731 -732 0
733 734 735 736 0
-733 -734 0
-733 -735 0
-733 -736 0
-734 -735 0
-734 -736 0
-735 -736 0
737 738 739 740 0
-737 -738 0
-737 -739 0
-737 -740 0
-738 -739 0
-738 -740 0
-739 -740 0
741 742 743 744 0
-741 -742 0
-741 -743 0
-741 -744 0
-742 -743 0
-742 -744 0
-743 -744 0
745 746 747 748 0
-745 -746 0
-745 -747 0
-745 -748 0
-746 -747 0
-746 -748 0
-747 -748 0
749 750 751 752 0
-749 -750 0
-749 -751 0
-749 -752 0
-750 -751 0
-750 -752 0
-751 -752 0
753 754 755 756 0
-753 -754 0
-753 -755 0
-753 -756 0
-754 -755 0
-754 -756 0
-755 -756 0
757 758 759 760 0
-757 -758 0
-757 -759 0
-757 -760 0
-758 -759 0
-758 -760 0
-759 -760 0
761 762 763 764 0
-761 -762 0
-761 -763 0
-761 -764 0
-762 -763 0
-762 -764 0
-763 -764 0
765 766 767 768 0
-765 -766 0
-765 -767 0
-765 -768 0
-766 -767 0
-766 -768 0
-767 -768 0
769 770 771 772 0
-769 -770 0
-769 -771 0
-769 -772 0
-770 -771 0
-770 -772 0
-771 -772 0
773 774 775 776 0
-773 -774 0
-773 -775 0
-773 -776 0
-774 -775 0
-774 -776 0
-775 -776 0
777 778 779 780 0
-777 -778 0
-777 -779 0
-777 -780 0
-778 -779 0
-778 -780 0
-779 -780 0
781 782 783 784 0
-781 -782 0
-781 -783 0
-781 -784 0
-782 -783 0
-782 -784 0
-783 -784 0
785 786 787 788 0
-785 -786 0
-785 -787 0
-785 -788 0
-786 -787 0
-786 -788 0
-787 -788 0
789 790 791 792 0
-789 -790 0
-789 -791 0
-789 -792 0
-790 -791 0
-790 -792 0
-791 -792 0
793 794 795 796 0
-793 -794 0
-793 -795 0
-793 -796 0
-794 -795 0
-794 -796 0
-795 -796 0
797 798 799 800 0
-797 -798 0
-797 -799 0
-797 -800 0
-798 -799 0
-798 -800 0
-799 -800 0
801 802 803 804 0
-801 -802 0
-801 -803 0
-801 -804 0
-802 -803 0
-802 -804 0
-803 -804 0
805 806 807 808 0
-805 -806 0
-805 -807 0
-805 -808 0
-806 -807 0
-806 -808 0
-807 -808 0
809 810 811 812 0
-809 -810 0
-809 -811 0
-809 -812 0
-810 -811 0
-810 -812 0
-811 -812 0
813 814 815 816 0
-813 -814 0
-813 -815 0
-813 -816 0
-814 -815 0
-814 -816 0
-815 -816 0
817 818 819 820 0
-817 -818 0
-817 -819 0
-817 -820 0
-818 -819 0
-818 -820 0
-819 -820 0
821 822 823 824 0
-821 -822 0
-821 -823 0
-821 -824 0
-822 -823 0
-822 -824 0
-823 -824 0
825 826 827 828 0
-825 -826 0
-825 -827 0
-825 -828 0
-826 -827 0
-826 -828 0
-827 -828 0
829 830 831 832 0
-829 -830 0
-829 -831 0
-829 -832 0
-830 -831 0
-830 -832 0
-831 -832 0
833 834 835 836 0
-833 -834 0
-833 -835 0
-833 -836 0
-834 -835 0
-834 -836 0
-835 -836 0
837 838 839 840 0
-837 -838 0
-837 -839 0
-837 -840 0
-838 -839 0
-838 -840 0
-839 -840 0
841 842 843 844 0
-841 -842 0
-841 -843 0
-841 -844 0
-842 -843 0
-842 -844 0
-843 -844 0
845 846 847 848 0
-845 -846 0
-845 -847 0
-845 -848 0
-846 -847 0
-846 -848 0
-847 -848 0
849 850 851 852 0
-849 -850 0
-849 -851 0
-849 -852 0
-850 -851 0
-850 -852 0
-851 -852 0
853 854 855 856 0
-853 -854 0
-853 -855 0
-853 -856 0
-854 -855 0
-854 -856 0
-855 -856 0
857 858 859 860 0
-857 -858 0
-857 -859 0
-857 -860 0
-858 -859 0
-858 -860 0
-859 -860 0
861 862 863 864 0
-861 -862 0
-861 -863 0
-861 -864 0
-862 -863 0
-862 -864 0
-863 -864 0
865 866 867 868 0
-865 -866 0
-865 -867 0
-865 -868 0
-866 -867 0
-866 -868 0
-867 -868 0
869 870 871 872 0
-869 -870 0
-869 -871 0
-869 -872 0
-870 -871 0
-870 -872 0
-871 -872 0
873 874 875 876 0
-873 -874 0
-873 -875 0
-873 -876 0
-874 -875 0
-874 -876 0
-875 -876 0
877 878 879 880 0
-877 -878 0
-877 -879 0
-877 -880 0
-878 -879 0
-878 -880 0
-879 -880 0
881 882 883 884 0
-881 -882 0
-881 -883 0
-881 -884 0
-882 -883 0
-882 -884 0
-883 -884 0
885 886 887 888 0
-885 -886 0
-885 -887 0
-885 -888 0
-886 -887 0
-886 -888 0
-887 -888 0
889 890 891 892 0
-889 -890 0
-889 -891 0
-889 -892 0
-890 -891 0
-890 -892 0
-891 -892 0
893 894 895 896 0
-893 -894 0
-893 -895 0
-893 -896 0
-894 -895 0
-894 -896 0
-895 -896 0
897 898 899 900 0
-897 -898 0
-897 -899 0
-897 -900 0
-898 -899 0
-898 -900 0
-899 -900 0
901 902 903 904 0
-901 -902 0
-901 -903 0
-901 -904 0
-902 -903 0
-902 -904 0
-903 -904 0
905 906 907 908 0
-905 -906 0
-905 -907 0
-905 -908 0
-906 -907 0
-906 -908 0
-907 -908 0
909 910 911 912 0
-909 -910 0
-909 -911 0
-909 -912 0
-910 -911 0
-910 -912 0
-911 -912 0
913 914 915 916 0
-913 -914 0
-913 -915 0
-913 -916 0
-914 -915 0
-914 -916 0
-915 -916 0
917 918 919 920 0
-917 -918 0
-917 -919 0
-917 -920 0
-918 -919 0
-918 -920 0
-919 -920 0
921 922 923 924 0
-921 -922 0
-921 -923 0
-921 -924 0
-922 -923 0
-922 -924 0
-923 -924 0
925 926 927 928 0
-925 -926 0
-925 -927 0
-925 -928 0
-926 -927 0
-926 -928 0
-927 -928 0
929 930 931 932 0
-929 -930 0
-929 -931 0
-929 -932 0
-930 -931 0
-930 -932 0
-931 -932 0
933 934 935 936 0
-933 -934 0
-933 -935 0
-933 -936 0
-934 -935 0
-934 -936 0
-935 -936 0
937 938 939 940 0
-937 -938 0
-937 -939 0
-937 -940 0
-938 -939 0
-938 -940 0
-939 -940 0
941 942 943 944 0
-941 -942 0
-941 -943 0
-941 -944 0
-942 -943 0
-942 -944 0
-943 -944 0
945 946 947 948 0
-945 -946 0
-945 -947 0
-945 -948 0
-946 -947 0
-946 -948 0
-947 -948 0
949 950 951 952 0
-949 -950 0
-949 -951 0
-949 -952 0
-950 -951 0
-950 -952 0
-951 -952 0
953 954 955 956 0
-953 -954 0
-953 -955 0
-953 -956 0
-954 -955 0
-954 -956 0
-955 -956 0
957 958 959 960 0
-957 -958 0
-957 -959 0
-957 -960 0
-958 -959 0
-958 -960 0
-959 -960 0
961 962 963 964 0
-961 -962 0
-961 -963 0
-961 -964 0
-962 -963 0
-962 -964 0
-963 -964 0
965 966 967 968 0
-965 -966 0
-965 -967 0
-965 -968 0
-966 -967 0
-966 -968 0
-967 -968 0
969 970 971 972 0
-969 -970 0
-969 -971 0
-969 -972 0
-970 -971 0
-970 -972 0
-971 -972 0
973 974 975 976 0
-973 -974 0
-973 -975 0
-973 -976 0
-974 -975 0
-974 -976 0
-975 -976 0
977 978 979 980 0
-977 -978 0
-977 -979 0
-977 -980 0
-978 -979 0
-978 -980 0
-979 -980 0
981 982 983 984 0
-981 -982 0
-981 -983 0
-981 -984 0
-982 -983 0
-982 -984 0
-983 -984 0
985 986 987 988 0
-985 -986 0
-985 -987 0
-985 -988 0
-986 -987 0
-986 -988 0
-987 -988 0
989 990 991 992 0
-989 -990 0
-989 -991 0
-989 -992 0
-990 -991 0
-990 -992 0
-991 -992 0
993 994 995 996 0
-993 -994 0
-993 -995 0
-993 -996 0
-994 -995 0
-994 -996 0
-995 -996 0
997 998 999 1000 0
-997 -998 0
-997 -999 0
-997 -1000 0
-998 -999 0
-998 -1000 0
-999 -1000 0
1001 1002 1003 1004 0
-1001 -1002 0
-1001 -1003 0
-1001 -1004 0
-1002 -1003 0
-1002 -1004 0
-1003 -1004 0
1005 1006 1007 1008 0
-1005 -1006 0
-1005 -1007 0
-1005 -1008 0
-1006 -1007 0
-1006 -1008 0
-1007 -1008 0
1009 1010 1011 1012 0
-1009 -1010 0
-1009 -1011 0
-1009 -1012 0
-1010 -1011 0
-1010 -1012 0
-1011 -1012 0
1013 1014 1015 1016 0
-1013 -1014 0
-1013 -1015 0
-1013 -1016 0
-1014 -1015 0
-1014 -1016 0
-1015 -1016 0
1017 1018 1019 1020 0
-1017 -1018 0
-1017 -1019 0
-1017 -1020 0
-1018 -1019 0
-1018 -1020 0
-1019 -1020 0
1021 1022 1023 1024 0
-1021 -1022 0
-1021 -1023 0
-1021 -1024 0
-1022 -1023 0
-1022 -1024 0
-1023 -1024 0
1025 1026 1027 1028 0
-1025 -1026 0
-1025 -1027 0
-1025 -1028 0
-1026 -1027 0
-1026 -1028 0
-1027 -1028 0
1029 1030 1031 1032 0
-1029 -1030 0
-1029 -1031 0
-1029 -1032 0
-1030 -1031 0
-1030 -1032 0
-1031 -1032 0
1033 1034 1035 1036 0
-1033 -1034 0
-1033 -1035 0
-1033 -1036 0
-1034 -1035 0
-1034 -1036 0
-1035 -1036 0
1037 1038 1039 1040 0
-1037 -1038 0
-1037 -1039 0
-1037 -1040 0
-1038 -1039 0
-1038 -1040 0
-1039 -1040 0
1041 1042 1043 1044 0
-1041 -1042 0
-1041 -1043 0
-1041 -1044 0
-1042 -1043 0
-1042 -1044 0
-1043 -1044 0
1045 1046 1047 1048 0
-1045 -1046 0
-1045 -1047 0
-1045 -1048 0
-1046 -1047 0
-1046 -1048 0
-1047 -1048 0
1049 1050 1051 1052 0
-1049 -1050 0
-1049 -1051 0
-1049 -1052 0
-1050 -1051 0
-1050 -1052 0
-1051 -1052 0
1053 1054 1055 1056 0
-1053 -1054 0
-1053 -1055 0
-1053 -1056 0
-1054 -1055 0
-1054 -1056 0
-1055 -1056 0
1057 1058 1059 1060 0
-1057 -1058 0
-1057 -1059 0
-1057 -1060 0
-1058 -1059 0
-1058 -1060 0
-1059 -1060 0
1061 1062 1063 1064 0
-1061 -1062 0
-1061 -1063 0
-1061 -1064 0
-1062 -1063 0
-1062 -1064 0
-1063 -1064 0
1065 1066 1067 1068 0
-1065 -1066 0
-1065 -1067 0
-1065 -1068 0
-1066 -1067 0
-1066 -1068 0
-1067 -1068 0
1069 1070 1071 1072 0
-1069 -1070 0
-1069 -1071 0
-1069 -1072 0
-1070 -1071 0
-1070 -1072 0
-1071 -1072 0
1073 1074 1075 1076 0
-1073 -1074 0
-1073 -1075 0
-1073 -1076 0
-1074 -1075 0
-1074 -1076 0
-1075 -1076 0
1077 1078 1079 1080 0
-1077 -1078 0
-1077 -1079 0
-1077 -1080 0
-1078 -1079 0
-1078 -1080 0
-1079 -1080 0
1081 1082 1083 1084 0
-1081 -1082 0
-1081 -1083 0
-1081 -1084 0
-1082 -1083 0
-1082 -1084 0
-1083 -1084 0
1085 1086 1087 1088 0
-1085 -1086 0
-1085 -1087 0
-1085 -1088 0
-1086 -1087 0
-1086 -1088 0
-1087 -1088 0
1089 1090 1091 1092 0
-1089 -1090 0
-1089 -1091 0
-1089 -1092 0
-1090 -1091 0
-1090 -1092 0
-1091 -1092 0
1093 1094 1095 1096 0
-1093 -1094 0
-1093 -1095 0
-1093 -1096 0
-1094 -1095 0
-1094 -1096 0
-1095 -1096 0
1097 1098 1099 1100 0
-1097 -1098 0
-1097 -1099 0
-1097 -1100 0
-1098 -1099 0
-1098 -1100 0
-1099 -1100 0
1101 1102 1103 1104 0
-1101 -1102 0
-1101 -1103 0
-1101 -1104 0
-1102 -1103 0
-1102 -1104 0
-1103 -1104 0
1105 1106 1107 1108 0
-1105 -1106 0
-1105 -1107 0
-1105 -1108 0
-1106 -1107 0
-1106 -1108 0
-1107 -1108 0
1109 1110 1111 1112 0
-1109 -1110 0
-1109 -1111 0
-1109 -1112 0
-1110 -1111 0
-1110 -1112 0
-1111 -1112 0
1113 1114 1115 1116 0
-1113 -1114 0
-1113 -1115 0
-1113 -1116 0
-1114 -1115 0
-1114 -1116 0
-1115 -1116 0
1117 1118 1119 1120 0
-1117 -1118 0
-1117 -1119 0
-1117 -1120 0
-1118 -1119 0
-1118 -1120 0
-1119 -1120 0
1121 1122 1123 1124 0
-1121 -1122 0
-1121 -1123 0
-1121 -1124 0
-1122 -1123 0
-1122 -1124 0
-1123 -1124 0
1125 1126 1127 1128 0
-1125 -1126 0
-1125 -1127 0
-1125 -1128 0
-1126 -1127 0
-1126 -1128 0
-1127 -1128 0
1129 1130 1131 1132 0
-1129 -1130 0
-1129 -1131 0
-1129 -1132 0
-1130 -1131 0
-1130 -1132 0
-1131 -1132 0
1133 1134 1135 1136 0
-1133 -1134 0
-1133 -1135 0
-1133 -1136 0
-1134 -1135 0
-1134 -1136 0
-1135 -1136 0
1137 1138 1139 1140 0
-1137 -1138 0
-1137 -1139 0
-1137 -1140 0
-1138 -1139 0
-1138 -1140 0
-1139 -1140 0
1141 1142 1143 1144 0
-1141 -1142 0
-1141 -1143 0
-1141 -1144 0
-1142 -1143 0
-1142 -1144 0
-1143 -1144 0
1145 1146 1147 1148 0
-1145 -1146 0
-1145 -1147 0
-1145 -1148 0
-1146 -1147 0
-1146 -1148 0
-1147 -1148 0
1149 1150 1151 1152 0
-1149 -1150 0
-1149 -1151 0
-1149 -1152 0
-1150 -1151 0
-1150 -1152 0
-1151 -1152 0
1153 1154 1155 1156 0
-1153 -1154 0
-1153 -1155 0
-1153 -1156 0
-1154 -1155 0
-1154 -1156 0
-1155 -1156 0
1157 1158 1159 1160 0
-1157 -1158 0
-1157 -1159 0
-1157 -1160 0
-1158 -1159 0
-1158 -1160 0
-1159 -1160 0
1161 1162 1163 1164 0
-1161 -1162 0
-1161 -1163 0
-1161 -1164 0
-1162 -1163 0
-1162 -1164 0
-1163 -1164 0
1165 1166 1167 1168 0
-1165 -1166 0
-1165 -1167 0
-1165 -1168 0
-1166 -1167 0
-1166 -1168 0
-1167 -1168 0
1169 1170 1171 1172 0
-1169 -1170 0
-1169 -1171 0
-1169 -1172 0
-1170 -1171 0
-1170 -1172 0
-1171 -1172 0
1173 1174 1175 1176 0
-1173 -1174 0
-1173 -1175 0
-1173 -1176 0
-1174 -1175 0
-1174 -1176 0
-1175 -1176 0
1177 1178 1179 1180 0
-1177 -1178 0
-1177 -1179 0
-1177 -1180 0
-1178 -1179 0
-1178 -1180 0
-1179 -1180 0
1181 1182 1183 1184 0
-1181 -1182 0
-1181 -1183 0
-1181 -1184 0
-1182 -1183 0
-1182 -1184 0
-1183 -1184 0
1185 1186 1187 1188 0
-1185 -1186 0
-1185 -1187 0
-1185 -1188 0
-1186 -1187 0
-1186 -1188 0
-1187 -1188 0
1189 1190 1191 1192 0
-1189 -1190 0
-1189 -1191 0
-1189 -1192 0
-1190 -1191 0
-1190 -1192 0
-1191 -1192 0
1193 1194 1195 1196 0
-1193 -1194 0
-1193 -1195 0
-1193 -1196 0
-1194 -1195 0
-1194 -1196 0
-1195 -1196 0
1197 1198 1199 1200 0
-1197 -1198 0
-1197 -1199 0
-1197 -1200 0
-1198 -1199 0
-1198 -1200 0
-1199 -1200 0
1201 1202 1203 1204 0
-1201 -1202 0
-1201 -1203 0
-1201 -1204 0
-1202 -1203 0
-1202 -1204 0
-1203 -1204 0
1205 1206 1207 1208 0
-1205 -1206 0
-1205 -1207 0
-1205 -1208 0
-1206 -1207 0
-1206 -1208 0
-1207 -1208 0
1209 1210 1211 1212 0
-1209 -1210 0
-1209 -1211 0
-1209 -1212 0
-1210 -1211 0
-1210 -1212 0
-1211 -1212 0
1213 1214 1215 1216 0
-1213 -1214 0
-1213 -1215 0
-1213 -1216 0
-1214 -1215 0
-1214 -1216 0
-1215 -1216 0
1217 1218 1219 1220 0
-1217 -1218 0
-1217 -1219 0
-1217 -1220 0
-1218 -1219 0
-1218 -1220 0
-1219 -1220 0
1221 1222 1223 1224 0
-1221 -1222 0
-1221 -1223 0
-1221 -1224 0
-1222 -1223 0
-1222 -1224 0
-1223 -1224 0
1225 1226 1227 1228 0
-1225 -1226 0
-1225 -1227 0
-1225 -1228 0
-1226 -1227 0
-1226 -1228 0
-1227 -1228 0
1229 1230 1231 1232 0
-1229 -1230 0
-1229 -1231 0
-1229 -1232 0
-1230 -1231 0
-1230 -1232 0
-1231 -1232 0
1233 1234 1235 1236 0
-1233 -1234 0
-1233 -1235 0
-1233 -1236 0
-1234 -1235 0
-1234 -1236 0
-1235 -1236 0
1237 1238 1239 1240 0
-1237 -1238 0
-1237 -1239 0
-1237 -1240 0
-1238 -1239 0
-1238 -1240 0
-1239 -1240 0
1241 1242 1243 1244 0
-1241 -1242 0
-1241 -1243 0
-1241 -1244 0
-1242 -1243 0
-1242 -1244 0
-1243 -1244 0
1245 1246 1247 1248 0
-1245 -1246 0
-1245 -1247 0
-1245 -1248 0
-1246 -1247 0
-1246 -1248 0
-1247 -1248 0
1249 1250 1251 1252 0
-1249 -1250 0
-1249 -1251 0
-1249 -1252 0
-1250 -1251 0
-1250 -1252 0
-1251 -1252 0
1253 1254 1255 1256 0
-1253 -1254 0
-1253 -1255 0
-1253 -1256 0
-1254 -1255 0
-1254 -1256 0
-1255 -1256 0
1257 1258 1259 1260 0
-1257 -1258 0
-1257 -1259 0
-1257 -1260 0
-1258 -1259 0
-1258 -1260 0
-1259 -1260 0
1261 1262 1263 1264 0
-1261 -1262 0
-1261 -1263 0
-1261 -1264 0
-1262 -1263 0
-1262 -1264 0
-1263 -1264 0
1265 1266 1267 1268 0
-1265 -1266 0
-1265 -1267 0
-1265 -1268 0
-1266 -1267 0
-1266 -1268 0
-1267 -1268 0
1269 1270 1271 1272 0
-1269 -1270 0
-1269 -1271 0
-1269 -1272 0
-1270 -1271 0
-1270 -1272 0
-1271 -1272 0
1273 1274 1275 1276 0
-1273 -1274 0
-1273 -1275 0
-1273 -1276 0
-1274 -1275 0
-1274 -1276 0
-1275 -1276 0
1277 1278 1279 1280 0
-1277 -1278 0
-1277 -1279 0
-1277 -1280 0
-1278 -1279 0
-1278 -1280 0
-1279 -1280 0
1281 1282 1283 1284 0
-1281 -1282 0
-1281 -1283 0
-1281 -1284 0
-1282 -1283 0
-1282 -1284 0
-1283 -1284 0
1285 1286 1287 1288 0
-1285 -1286 0
-1285 -1287 0
-1285 -1288 0
-1286 -1287 0
-1286 -1288 0
-1287 -1288 0
1289 1290 1291 1292 0
-1289 -1290 0
-1289 -1291 0
-1289 -1292 0
-1290 -1291 0
-1290 -1292 0
-1291 -1292 0
1293 1294 1295 1296 0
-1293 -1294 0
-1293 -1295 0
-1293 -1296 0
-1294 -1295 0
-1294 -1296 0
-1295 -1296 0
1297 1298 1299 1300 0
-1297 -1298 0
-1297 -1299 0
-1297 -1300 0
-1298 -1299 0
-1298 -1300 0
-1299 -1300 0
1301 1302 1303 1304 0
-1301 -1302 0
-1301 -1303 0
-1301 -1304 0
-1302 -1303 0
-1302 -1304 0
-1303 -1304 0
1305 1306 1307 1308 0
-1305 -1306 0
-1305 -1307 0
-1305 -1308 0
-1306 -1307 0
-1306 -1308 0
-1307 -1308 0
1309 1310 1311 1312 0
-1309 -1310 0
-1309 -1311 0
-1309 -1312 0
-1310 -1311 0
-1310 -1312 0
-1311 -1312 0
1313 1314 1315 1316 0
-1313 -1314 0
-1313 -1315 0
-1313 -1316 0
-1314 -1315 0
-1314 -1316 0
-1315 -1316 0
1317 1318 1319 1320 0
-1317 -1318 0
-1317 -1319 0
-1317 -1320 0
-1318 -1319 0
-1318 -1320 0
-1319 -1320 0
1321 1322 1323 1324 0
-1321 -1322 0
-1321 -1323 0
-1321 -1324 0
-1322 -1323 0
-1322 -1324 0
-1323 -1324 0
1325 1326 1327 1328 0
-1325 -1326 0
-1325 -1327 0
-1325 -1328 0
-1326 -1327 0
-1326 -1328 0
-1327 -1328 0
1329 1330 1331 1332 0
-1329 -1330 0
-1329 -1331 0
-1329 -1332 0
-1330 -1331 0
-1330 -1332 0
-1331 -1332 0
1333 1334 1335 1336 0
-1333 -1334 0
-1333 -1335 0
-1333 -1336 0
-1334 -1335 0
-1334 -1336 0
-1335 -1336 0
1337 1338 1339 1340 0
-1337 -1338 0
-1337 -1339 0
-1337 -1340 0
-1338 -1339 0
-1338 -1340 0
-1339 -1340 0
1341 1342 1343 1344 0
-1341 -1342 0
-1341 -1343 0
-1341 -1344 0
-1342 -1343 0
-1342 -1344 0
-1343 -1344 0
1345 1346 1347 1348 0
-1345 -1346 0
-1345 -1347 0
-1345 -1348 0
-1346 -1347 0
-1346 -1348 0
-1347 -1348 0
1349 1350 1351 1352 0
-1349 -1350 0
-1349 -1351 0
-1349 -1352 0
-1350 -1351 0
-1350 -1352 0
-1351 -1352 0
1353 1354 1355 1356 0
-1353 -1354 0
-1353 -1355 0
-1353 -1356 0
-1354 -1355 0
-1354 -1356 0
-1355 -1356 0
1357 1358 1359 1360 0
-1357 -1358 0
-1357 -1359 0
-1357 -1360 0
-1358 -1359 0
-1358 -1360 0
-1359 -1360 0
1361 1362 1363 1364 0
-1361 -1362 0
-1361 -1363 0
-1361 -1364 0
-1362 -1363 0
-1362 -1364 0
-1363 -1364 0
1365 1366 1367 1368 0
-1365 -1366 0
-1365 -1367 0
-1365 -1368 0
-1366 -1367 0
-1366 -1368 0
-1367 -1368 0
1369 1370 1371 1372 0
-1369 -1370 0
-1369 -1371 0
-1369 -1372 0
-1370 -1371 0
-1370 -1372 0
-1371 -1372 0
1373 1374 1375 1376 0
-1373 -1374 0
-1373 -1375 0
-1373 -1376 0
-1374 -1375 0
-1374 -1376 0
-1375 -1376 0
1377 1378 1379 1380 0
-1377 -1378 0
-1377 -1379 0
-1377 -1380 0
-1378 -1379 0
-1378 -1380 0
-1379 -1380 0
1381 1382 1383 1384 0
-1381 -1382 0
-1381 -1383 0
-1381 -1384 0
-1382 -1383 0
-1382 -1384 0
-1383 -1384 0
1385 1386 1387 1388 0
-1385 -1386 0
-1385 -1387 0
-1385 -1388 0
-1386 -1387 0
-1386 -1388 0
-1387 -1388 0
1389 1390 1391 1392 0
-1389 -1390 0
-1389 -1391 0
-1389 -1392 0
-1390 -1391 0
-1390 -1392 0
-1391 -1392 0
1393 1394 1395 1396 0
-1393 -1394 0
-1393 -1395 0
-1393 -1396 0
-1394 -1395 0
-1394 -1396 0
-1395 -1396 0
1397 1398 1399 1400 0
-1397 -1398 0
-1397 -1399 0
-1397 -1400 0
-1398 -1399 0
-1398 -1400 0
-1399 -1400 0
1401 1402 1403 1404 0
-1401 -1402 0
-1401 -1403 0
-1401 -1404 0
-1402 -1403 0
-1402 -1404 0
-1403 -1404 0
1405 1406 1407 1408 0
-1405 -1406 0
-1405 -1407 0
-1405 -1408 0
-1406 -1407 0
-1406 -1408 0
-1407 -1408 0
1409 1410 1411 1412 0
-1409 -1410 0
-1409 -1411 0
-1409 -1412 0
-1410 -1411 0
-1410 -1412 0
-1411 -1412 0
1413 1414 1415 1416 0
-1413 -1414 0
-1413 -1415 0
-1413 -1416 0
-1414 -1415 0
-1414 -1416 0
-1415 -1416 0
1417 1418 1419 1420 0
-1417 -1418 0
-1417 -1419 0
-1417 -1420 0
-1418 -1419 0
-1418 -1420 0
-1419 -1420 0
1421 1422 1423 1424 0
-1421 -1422 0
-1421 -1423 0
-1421 -1424 0
-1422 -1423 0
-1422 -1424 0
-1423 -1424 0
1425 1426 1427 1428 0
-1425 -1426 0
-1425 -1427 0
-1425 -1428 0
-1426 -1427 0
-1426 -1428 0
-1427 -1428 0
1429 1430 1431 1432 0
-1429 -1430 0
-1429 -1431 0
-1429 -1432 0
-1430 -1431 0
-1430 -1432 0
-1431 -1432 0
1433 1434 1435 1436 0
-1433 -1434 0
-1433 -1435 0
-1433 -1436 0
-1434 -1435 0
-1434 -1436 0
-1435 -1436 0
1437 1438 1439 1440 0
-1437 -1438 0
-1437 -1439 0
-1437 -1440 0
-1438 -1439 0
-1438 -1440 0
-1439 -1440 0
1441 1442 1443 1444 0
-1441 -1442 0
-1441 -1443 0
-1441 -1444 0
-1442 -1443 0
-1442 -1444 0
-1443 -1444 0
1445 1446 1447 1448 0
-1445 -1446 0
-1445 -1447 0
-1445 -1448 0
-1446 -1447 0
-1446 -1448 0
-1447 -1448 0
1449 1450 1451 1452 0
-1449 -1450 0
-1449 -1451 0
-1449 -1452 0
-1450 -1451 0
-1450 -1452 0
-1451 -1452 0
1453 1454 1455 1456 0
-1453 -1454 0
-1453 -1455 0
-1453 -1456 0
-1454 -1455 0
-1454 -1456 0
-1455 -1456 0
1457 1458 1459 1460 0
-1457 -1458 0
-1457 -1459 0
-1457 -1460 0
-1458 -1459 0
-1458 -1460 0
-1459 -1460 0
1461 1462 1463 1464 0
-1461 -1462 0
-1461 -1463 0
-1461 -1464 0
-1462 -1463 0
-1462 -1464 0
-1463 -1464 0
1465 1466 1467 1468 0
-1465 -1466 0
-1465 -1467 0
-1465 -1468 0
-1466 -1467 0
-1466 -1468 0
-1467 -1468 0
1469 1470 1471 1472 0
-1469 -1470 0
-1469 -1471 0
-1469 -1472 0
-1470 -1471 0
-1470 -1472 0
-1471 -1472 0
1473 1474 1475 1476 0
-1473 -1474 0
-1473 -1475 0
-1473 -1476 0
-1474 -1475 0
-1474 -1476 0
-1475 -1476 0
1477 1478 1479 1480 0
-1477 -1478 0
-1477 -1479 0
-1477 -1480 0
-1478 -1479 0
-1478 -1480 0
-1479 -1480 0
1481 1482 1483 1484 0
-1481 -1482 0
-1481 -1483 0
-1481 -1484 0
-1482 -1483 0
-1482 -1484 0
-1483 -1484 0
1485 1486 1487 1488 0
-1485 -1486 0
-1485 -1487 0
-1485 -1488 0
-1486 -1487 0
-1486 -1488 0
-1487 -1488 0
1489 1490 1491 1492 0
-1489 -1490 0
-1489 -1491 0
-1489 -1492 0
-1490 -1491 0
-1490 -1492 0
-1491 -1492 0
1493 1494 1495 1496 0
-1493 -1494 0
-1493 -1495 0
-1493 -1496 0
-1494 -1495 0
-1494 -1496 0
-1495 -1496 0
1497 1498 1499 1500 0
-1497 -1498 0
-1497 -1499 0
-1497 -1500 0
-1498 -1499 0
-1498 -1500 0
-1499 -1500 0
1501 1502 1503 1504 0
-1501 -1502 0
-1501 -1503 0
-1501 -1504 0
-1502 -1503 0
-1502 -1504 0
-1503 -1504 0
1505 1506 1507 1508 0
-1505 -1506 0
-1505 -1507 0
-1505 -1508 0
-1506 -1507 0
-1506 -1508 0
-1507 -1508 0
1509 1510 1511 1512 0
-1509 -1510 0
-1509 -1511 0
-1509 -1512 0
-1510 -1511 0
-1510 -1512 0
-1511 -1512 0
1513 1514 1515 1516 0
-1513 -1514 0
-1513 -1515 0
-1513 -1516 0
-1514 -1515 0
-1514 -1516 0
-1515 -1516 0
1517 1518 1519 1520 0
-1517 -1518 0
-1517 -1519 0
-1517 -1520 0
-1518 -1519 0
-1518 -1520 0
-1519 -1520 0
1521 1522 1523 1524 0
-1521 -1522 0
-1521 -1523 0
-1521 -1524 0
-1522 -1523 0
-1522 -1524 0
-1523 -1524 0
1525 1526 1527 1528 0
-1525 -1526 0
-1525 -1527 0
-1525 -1528 0
-1526 -1527 0
-1526 -1528 0
-1527 -1528 0
1529 1530 1531 1532 0
-1529 -1530 0
-1529 -1531 0
-1529 -1532 0
-1530 -1531 0
-1530 -1532 0
-1531 -1532 0
1533 1534 1535 1536 0
-1533 -1534 0
-1533 -1535 0
-1533 -1536 0
-1534 -1535 0
-1534 -1536 0
-1535 -1536 0
1537 1538 1539 1540 0
-1537 -1538 0
-1537 -1539 0
-1537 -1540 0
-1538 -1539 0
-1538 -1540 0
-1539 -1540 0
1541 1542 1543 1544 0
-1541 -1542 0
-1541 -1543 0
-1541 -1544 0
-1542 -1543 0
-1542 -1544 0
-1543 -1544 0
1545 1546 1547 1548 0
-1545 -1546 0
-1545 -1547 0
-1545 -1548 0
-1546 -1547 0
-1546 -1548 0
-1547 -1548 0
1549 1550 1551 1552 0
-1549 -1550 0
-1549 -1551 0
-1549 -1552 0
-1550 -1551 0
-1550 -1552 0
-1551 -1552 0
1553 1554 1555 1556 0
-1553 -1554 0
-1553 -1555 0
-1553 -1556 0
-1554 -1555 0
-1554 -1556 0
-1555 -1556 0
1557 1558 1559 1560 0
-1557 -1558 0
-1557 -1559 0
-1557 -1560 0
-1558 -1559 0
-1558 -1560 0
-1559 -1560 0
1561 1562 1563 1564 0
-1561 -1562 0
-1561 -1563 0
-1561 -1564 0
-1562 -1563 0
-1562 -1564 0
-1563 -1564 0
1565 1566 1567 1568 0
-1565 -1566 0
-1565 -1567 0
-1565 -1568 0
-1566 -1567 0
-1566 -1568 0
-1567 -1568 0
1569 1570 1571 1572 0
-1569 -1570 0
-1569 -1571 0
-1569 -1572 0
-1570 -1571 0
-1570 -1572 0
-1571 -1572 0
1573 1574 1575 1576 0
-1573 -1574 0
-1573 -1575 0
-1573 -1576 0
-1574 -1575 0
-1574 -1576 0
-1575 -1576 0
1577 1578 1579 1580 0
-1577 -1578 0
-1577 -1579 0
-1577 -1580 0
-1578 -1579 0
-1578 -1580 0
-1579 -1580 0
1581 1582 1583 1584 0
-1581 -1582 0
-1581 -1583 0
-1581 -1584 0
-1582 -1583 0
-1582 -1584 0
-1583 -1584 0
1585 1586 1587 1588 0
-1585 -1586 0
-1585 -1587 0
-1585 -1588 0
-1586 -1587 0
-1586 -1588 0
-1587 -1588 0
1589 1590 1591 1592 0
-1589 -1590 0
-1589 -1591 0
-1589 -1592 0
-1590 -1591 0
-1590 -1592 0
-1591 -1592 0
1593 1594 1595 1596 0
-1593 -1594 0
-1593 -1595 0
-1593 -1596 0
-1594 -1595 0
-1594 -1596 0
-1595 -1596 0
1597 1598 1599 1600 0
-1597 -1598 0
-1597 -1599 0
-1597 -1600 0
-1598 -1599 0
-1598 -1600 0
-1599 -1600 0
1601 1602 1603 1604 0
-1601 -1602 0
-1601 -1603 0
-1601 -1604 0
-1602 -1603 0
-1602 -1604 0
-1603 -1604 0
1605 1606 1607 1608 0
-1605 -1606 0
-1605 -1607 0
-1605 -1608 0
-1606 -1607 0
-1606 -1608 0
-1607 -1608 0
1609 1610 1611 1612 0
-1609 -1610 0
-1609 -1611 0
-1609 -1612 0
-1610 -1611 0
-1610 -1612 0
-1611 -1612 0
1613 1614 1615 1616 0
-1613 -1614 0
-1613 -1615 0
-1613 -1616 0
-1614 -1615 0
-1614 -1616 0
-1615 -1616 0
1617 1618 1619 1620 0
-1617 -1618 0
-1617 -1619 0
-1617 -1620 0
-1618 -1619 0
-1618 -1620 0
-1619 -1620 0
1621 1622 1623 1624 0
-1621 -1622 0
-1621 -1623 0
-1621 -1624 0
-1622 -1623 0
-1622 -1624 0
-1623 -1624 0
1625 1626 1627 1628 0
-1625 -1626 0
-1625 -1627 0
-1625 -1628 0
-1626 -1627 0
-1626 -1628 0
-1627 -1628 0
1629 1630 1631 1632 0
-1629 -1630 0
-1629 -1631 0
-1629 -1632 0
-1630 -1631 0
-1630 -1632 0
-1631 -1632 0
1633 1634 1635 1636 0
-1633 -1634 0
-1633 -1635 0
-1633 -1636 0
-1634 -1635 0
-1634 -1636 0
-1635 -1636 0
1637 1638 1639 1640 0
-1637 -1638 0
-1637 -1639 0
-1637 -1640 0
-1638 -1639 0
-1638 -1640 0
-1639 -1640 0
1641 1642 1643 1644 0
-1641 -1642 0
-1641 -1643 0
-1641 -1644 0
-1642 -1643 0
-1642 -1644 0
-1643 -1644 0
1645 1646 1647 1648 0
-1645 -1646 0
-1645 -1647 0
-1645 -1648 0
-1646 -1647 0
-1646 -1648 0
-1647 -1648 0
1649 1650 1651 1652 0
-1649 -1650 0
-1649 -1651 0
-1649 -1652 0
-1650 -1651 0
-1650 -1652 0
-1651 -1652 0
1653 1654 1655 1656 0
-1653 -1654 0
-1653 -1655 0
-1653 -1656 0
-1654 -1655 0
-1654 -1656 0
-1655 -1656 0
1657 1658 1659 1660 0
-1657 -1658 0
-1657 -1659 0
-1657 -1660 0
-1658 -1659 0
-1658 -1660 0
-1659 -1660 0
1661 1662 1663 1664 0
-1661 -1662 0
-1661 -1663 0
-1661 -1664 0
-1662 -1663 0
-1662 -1664 0
-1663 -1664 0
1665 1666 1667 1668 0
-1665 -1666 0
-1665 -1667 0
-1665 -1668 0
-1666 -1667 0
-1666 -1668 0
-1667 -1668 0
1669 1670 1671 1672 0
-1669 -1670 0
-1669 -1671 0
-1669 -1672 0
-1670 -1671 0
-1670 -1672 0
-1671 -1672 0
1673 1674 1675 1676 0
-1673 -1674 0
-1673 -1675 0
-1673 -1676 0
-1674 -1675 0
-1674 -1676 0
-1675 -1676 0
1677 1678 1679 1680 0
-1677 -1678 0
-1677 -1679 0
-1677 -1680 0
-1678 -1679 0
-1678 -1680 0
-1679 -1680 0
1681 1682 1683 1684 0
-1681 -1682 0
-1681 -1683 0
-1681 -1684 0
-1682 -1683 0
-1682 -1684 0
-1683 -1684 0
1685 1686 1687 1688 0
-1685 -1686 0
-1685 -1687 0
-1685 -1688 0
-1686 -1687 0
-1686 -1688 0
-1687 -1688 0
1689 1690 1691 1692 0
-1689 -1690 0
-1689 -1691 0
-1689 -1692 0
-1690 -1691 0
-1690 -1692 0
-1691 -1692 0
1693 1694 1695 1696 0
-1693 -1694 0
-1693 -1695 0
-1693 -1696 0
-1694 -1695 0
-1694 -1696 0
-1695 -1696 0
1697 1698 1699 1700 0
-1697 -1698 0
-1697 -1699 0
-1697 -1700 0
-1698 -1699 0
-1698 -1700 0
-1699 -1700 0
1701 1702 1703 1704 0
-1701 -1702 0
-1701 -1703 0
-1701 -1704 0
-1702 -1703 0
-1702 -1704 0
-1703 -1704 0
1705 1706 1707 1708 0
-1705 -1706 0
-1705 -1707 0
-1705 -1708 0
-1706 -1707 0
-1706 -1708 0
-1707 -1708 0
1709 1710 1711 1712 0
-1709 -1710 0
-1709 -1711 0
-1709 -1712 0
-1710 -1711 0
-1710 -1712 0
-1711 -1712 0
1713 1714 1715 1716 0
-1713 -1714 0
-1713 -1715 0
-1713 -1716 0
-1714 -1715 0
-1714 -1716 0
-1715 -1716 0
1717 1718 1719 1720 0
-1717 -1718 0
-1717 -1719 0
-1717 -1720 0
-1718 -1719 0
-1718 -1720 0
-1719 -1720 0
1721 1722 1723 1724 0
-1721 -1722 0
-1721 -1723 0
-1721 -1724 0
-1722 -1723 0
-1722 -1724 0
-1723 -1724 0
1725 1726 1727 1728 0
-1725 -1726 0
-1725 -1727 0
-1725 -1728 0
-1726 -1727 0
-1726 -1728 0
-1727 -1728 0
1729 1730 1731 1732 0
-1729 -1730 0
-1729 -1731 0
-1729 -1732 0
-1730 -1731 0
-1730 -1732 0
-1731 -1732 0
1733 1734 1735 1736 0
-1733 -1734 0
-1733 -1735 0
-1733 -1736 0
-1734 -1735 0
-1734 -1736 0
-1735 -1736 0
1737 1738 1739 1740 0
-1737 -1738 0
-1737 -1739 0
-1737 -1740 0
-1738 -1739 0
-1738 -1740 0
-1739 -1740 0
1741 1742 1743 1744 0
-1741 -1742 0
-1741 -1743 0
-1741 -1744 0
-1742 -1743 0
-1742 -1744 0
-1743 -1744 0
1745 1746 1747 1748 0
-1745 -1746 0
-1745 -1747 0
-1745 -1748 0
-1746 -1747 0
-1746 -1748 0
-1747 -1748 0
1749 1750 1751 1752 0
-1749 -1750 0
-1749 -1751 0
-1749 -1752 0
-1750 -1751 0
-1750 -1752 0
-1751 -1752 0
1753 1754 1755 1756 0
-1753 -1754 0
-1753 -1755 0
-1753 -1756 0
-1754 -1755 0
-1754 -1756 0
-1755 -1756 0
1757 1758 1759 1760 0
-1757 -1758 0
-1757 -1759 0
-1757 -1760 0
-1758 -1759 0
-1758 -1760 0
-1759 -1760 0
1761 1762 1763 1764 0
-1761 -1762 0
-1761 -1763 0
-1761 -1764 0
-1762 -1763 0
-1762 -1764 0
-1763 -1764 0
1765 1766 1767 1768 0
-1765 -1766 0
-1765 -1767 0
-1765 -1768 0
-1766 -1767 0
-1766 -1768 0
-1767 -1768 0
1769 1770 1771 1772 0
-1769 -1770 0
-1769 -1771 0
-1769 -1772 0
-1770 -1771 0
-1770 -1772 0
-1771 -1772 0
1773 1774 1775 1776 0
-1773 -1774 0
-1773 -1775 0
-1773 -1776 0
-1774 -1775 0
-1774 -1776 0
-1775 -1776 0
1777 1778 1779 1780 0
-1777 -1778 0
-1777 -1779 0
-1777 -1780 0
-1778 -1779 0
-1778 -1780 0
-1779 -1780 0
1781 1782 1783 1784 0
-1781 -1782 0
-1781 -1783 0
-1781 -1784 0
-1782 -1783 0
-1782 -1784 0
-1783 -1784 0
1785 1786 1787 1788 0
-1785 -1786 0
-1785 -1787 0
-1785 -1788 0
-1786 -1787 0
-1786 -1788 0
-1787 -1788 0
1789 1790 1791 1792 0
-1789 -1790 0
-1789 -1791 0
-1789 -1792 0
-1790 -1791 0
-1790 -1792 0
-1791 -1792 0
1793 1794 1795 1796 0
-1793 -1794 0
-1793 -1795 0
-1793 -1796 0
-1794 -1795 0
-1794 -1796 0
-1795 -1796 0
1797 1798 1799 1800 0
-1797 -1798 0
-1797 -1799 0
-1797 -1800 0
-1798 -1799 0
-1798 -1800 0
-1799 -1800 0
1801 1802 1803 1804 0
-1801 -1802 0
-1801 -1803 0
-1801 -1804 0
-1802 -1803 0
-1802 -1804 0
-1803 -1804 0
1805 1806 1807 1808 0
-1805 -1806 0
-1805 -1807 0
-1805 -1808 0
-1806 -1807 0
-1806 -1808 0
-1807 -1808 0
1809 1810 1811 1812 0
-1809 -1810 0
-1809 -1811 0
-1809 -1812 0
-1810 -1811 0
-1810 -1812 0
-1811 -1812 0
1813 1814 1815 1816 0
-1813 -1814 0
-1813 -1815 0
-1813 -1816 0
-1814 -1815 0
-1814 -1816 0
-1815 -1816 0
1817 1818 1819 1820 0
-1817 -1818 0
-1817 -1819 0
-1817 -1820 0
-1818 -1819 0
-1818 -1820 0
-1819 -1820 0
1821 1822 1823 1824 0
-1821 -1822 0
-1821 -1823 0
-1821 -1824 0
-1822 -1823 0
-1822 -1824 0
-1823 -1824 0
1825 1826 1827 1828 0
-1825 -1826 0
-1825 -1827 0
-1825 -1828 0
-1826 -1827 0
-1826 -1828 0
-1827 -1828 0
1829 1830 1831 1832 0
-1829 -1830 0
-1829 -1831 0
-1829 -1832 0
-1830 -1831 0
-1830 -1832 0
-1831 -1832 0
1833 1834 1835 1836 0
-1833 -1834 0
-1833 -1835 0
-1833 -1836 0
-1834 -1835 0
-1834 -1836 0
-1835 -1836 0
1837 1838 1839 1840 0
-1837 -1838 0
-1837 -1839 0
-1837 -1840 0
-1838 -1839 0
-1838 -1840 0
-1839 -1840 0
1841 1842 1843 1844 0
-1841 -1842 0
-1841 -1843 0
-1841 -1844 0
-1842 -1843 0
-1842 -1844 0
-1843 -1844 0
1845 1846 1847 1848 0
-1845 -1846 0
-1845 -1847 0
-1845 -1848 0
-1846 -1847 0
-1846 -1848 0
-1847 -1848 0
1849 1850 1851 1852 0
-1849 -1850 0
-1849 -1851 0
-1849 -1852 0
-1850 -1851 0
-1850 -1852 0
-1851 -1852 0
1853 1854 1855 1856 0
-1853 -1854 0
-1853 -1855 0
-1853 -1856 0
-1854 -1855 0
-1854 -1856 0
-1855 -1856 0
1857 1858 1859 1860 0
-1857 -1858 0
-1857 -1859 0
-1857 -1860 0
-1858 -1859 0
-1858 -1860 0
-1859 -1860 0
1861 1862 1863 1864 0
-1861 -1862 0
-1861 -1863 0
-1861 -1864 0
-1862 -1863 0
-1862 -1864 0
-1863 -1864 0
1865 1866 1867 1868 0
-1865 -1866 0
-1865 -1867 0
-1865 -1868 0
-1866 -1867 0
-1866 -1868 0
-1867 -1868 0
1869 1870 1871 1872 0
-1869 -1870 0
-1869 -1871 0
-1869 -1872 0
-1870 -1871 0
-1870 -1872 0
-1871 -1872 0
1873 1874 1875 1876 0
-1873 -1874 0
-1873 -1875 0
-1873 -1876 0
-1874 -1875 0
-1874 -1876 0
-1875 -1876 0
1877 1878 1879 1880 0
-1877 -1878 0
-1877 -1879 0
-1877 -1880 0
-1878 -1879 0
-1878 -1880 0
-1879 -1880 0
1881 1882 1883 1884 0
-1881 -1882 0
-1881 -1883 0
-1881 -1884 0
-1882 -1883 0
-1882 -1884 0
-1883 -1884 0
1885 1886 1887 1888 0
-1885 -1886 0
-1885 -1887 0
-1885 -1888 0
-1886 -1887 0
-1886 -1888 0
-1887 -1888 0
1889 1890 1891 1892 0
-1889 -1890 0
-1889 -1891 0
-1889 -1892 0
-1890 -1891 0
-1890 -1892 0
-1891 -1892 0
1893 1894 1895 1896 0
-1893 -1894 0
-1893 -1895 0
-1893 -1896 0
-1894 -1895 0
-1894 -1896 0
-1895 -1896 0
1897 1898 1899 1900 0
-1897 -1898 0
-1897 -1899 0
-1897 -1900 0
-1898 -1899 0
-1898 -1900 0
-1899 -1900 0
1901 1902 1903 1904 0
-1901 -1902 0
-1901 -1903 0
-1901 -1904 0
-1902 -1903 0
-1902 -1904 0
-1903 -1904 0
1905 1906 1907 1908 0
-1905 -1906 0
-1905 -1907 0
-1905 -1908 0
-1906 -1907 0
-1906 -1908 0
-1907 -1908 0
1909 1910 1911 1912 0
-1909 -1910 0
-1909 -1911 0
-1909 -1912 0
-1910 -1911 0
-1910 -1912 0
-1911 -1912 0
1913 1914 1915 1916 0
-1913 -1914 0
-1913 -1915 0
-1913 -1916 0
-1914 -1915 0
-1914 -1916 0
-1915 -1916 0
1917 1918 1919 1920 0
-1917 -1918 0
-1917 -1919 0
-1917 -1920 0
-1918 -1919 0
-1918 -1920 0
-1919 -1920 0
1921 1922 1923 1924 0
-1921 -1922 0
-1921 -1923 0
-1921 -1924 0
-1922 -1923 0
-1922 -1924 0
-1923 -1924 0
1925 1926 1927 1928 0
-1925 -1926 0
-1925 -1927 0
-1925 -1928 0
-1926 -1927 0
-1926 -1928 0
-1927 -1928 0
1929 1930 1931 1932 0
-1929 -1930 0
-1929 -1931 0
-1929 -1932 0
-1930 -1931 0
-1930 -1932 0
-1931 -1932 0
1933 1934 1935 1936 0
-1933 -1934 0
-1933 -1935 0
-1933 -1936 0
-1934 -1935 0
-1934 -1936 0
-1935 -1936 0
1937 1938 1939 1940 0
-1937 -1938 0
-1937 -1939 0
-1937 -1940 0
-1938 -1939 0
-1938 -1940 0
-1939 -1940 0
1941 1942 1943 1944 0
-1941 -1942 0
-1941 -1943 0
-1941 -1944 0
-1942 -1943 0
-1942 -1944 0
-1943 -1944 0
1945 1946 1947 1948 0
-1945 -1946 0
-1945 -1947 0
-1945 -1948 0
-1946 -1947 0
-1946 -1948 0
-1947 -1948 0
1949 1950 1951 1952 0
-1949 -1950 0
-1949 -1951 0
-1949 -1952 0
-1950 -1951 0
-1950 -1952 0
-1951 -1952 0
1953 1954 1955 1956 0
-1953 -1954 0
-1953 -1955 0
-1953 -1956 0
-1954 -1955 0
-1954 -1956 0
-1955 -1956 0
1957 1958 1959 1960 0
-1957 -1958 0
-1957 -1959 0
-1957 -1960 0
-1958 -1959 0
-1958 -1960 0
-1959 -1960 0
1961 1962 1963 1964 0
-1961 -1962 0
-1961 -1963 0
-1961 -1964 0
-1962 -1963 0
-1962 -1964 0
-1963 -1964 0
1965 1966 1967 1968 0
-1965 -1966 0
-1965 -1967 0
-1965 -1968 0
-1966 -1967 0
-1966 -1968 0
-1967 -1968 0
1969 1970 1971 1972 0
-1969 -1970 0
-1969 -1971 0
-1969 -1972 0
-1970 -1971 0
-1970 -1972 0
-1971 -1972 0
1973 1974 1975 1976 0
-1973 -1974 0
-1973 -1975 0
-1973 -1976 0
-1974 -1975 0
-1974 -1976 0
-1975 -1976 0
1977 1978 1979 1980 0
-1977 -1978 0
-1977 -1979 0
-1977 -1980 0
-1978 -1979 0
-1978 -1980 0
-1979 -1980 0
1981 1982 1983 1984 0
-1981 -1982 0
-1981 -1983 0
-1981 -1984 0
-1982 -1983 0
-1982 -1984 0
-1983 -1984 0
1985 1986 1987 1988 0
-1985 -1986 0
-1985 -1987 0
-1985 -1988 0
-1986 -1987 0
-1986 -1988 0
-1987 -1988 0
1989 1990 1991 1992 0
-1989 -1990 0
-1989 -1991 0
-1989 -1992 0
-1990 -1991 0
-1990 -1992 0
-1991 -1992 0
1993 1994 1995 1996 0
-1993 -1994 0
-1993 -1995 0
-1993 -1996 0
-1994 -1995 0
-1994 -1996 0
-1995 -1996 0
1997 1998 1999 2000 0
-1997 -1998 0
-1997 -1999 0
-1997 -2000 0
-1998 -1999 0
-1998 -2000 0
-1999 -2000 0
2001 2002 2003 2004 0
-2001 -2002 0
-2001 -2003 0
-2001 -2004 0
-2002 -2003 0
-2002 -2004 0
-2003 -2004 0
2005 2006 2007 2008 0
-2005 -2006 0
-2005 -2007 0
-2005 -2008 0
-2006 -2007 0
-2006 -2008 0
-2007 -2008 0
2009 2010 2011 2012 0
-2009 -2010 0
-2009 -2011 0
-2009 -2012 0
-2010 -2011 0
-2010 -2012 0
-2011 -2012 0
2013 2014 2015 2016 0
-2013 -2014 0
-2013 -2015 0
-2013 -2016 0
-2014 -2015 0
-2014 -2016 0
-2015 -2016 0
2017 2018 2019 2020 0
-2017 -2018 0
-2017 -2019 0
-2017 -2020 0
-2018 -2019 0
-2018 -2020 0
-2019 -2020 0
2021 2022 2023 2024 0
-2021 -2022 0
-2021 -2023 0
-2021 -2024 0
-2022 -2023 0
-2022 -2024 0
-2023 -2024 0
2025 2026 2027 2028 0
-2025 -2026 0
-2025 -2027 0
-2025 -2028 0
-2026 -2027 0
-2026 -2028 0
-2027 -2028 0
2029 2030 2031 2032 0
-2029 -2030 0
-2029 -2031 0
-2029 -2032 0
-2030 -2031 0
-2030 -2032 0
-2031 -2032 0
2033 2034 2035 2036 0
-2033 -2034 0
-2033 -2035 0
-2033 -2036 0
-2034 -2035 0
-2034 -2036 0
-2035 -2036 0
2037 2038 2039 2040 0
-2037 -2038 0
-2037 -2039 0
-2037 -2040 0
-2038 -2039 0
-2038 -2040 0
-2039 -2040 0
-1 -613 0
-2 -614 0
-3 -615 0
-4 -616 0
-1 -617 0
-2 -618 0
-3 -619 0
-4 -620 0
-1 -621 0
-2 -622 0
-3 -623 0
-4 -624 0
-1 -625 0
-2 -626 0
-3 -627 0
-4 -628 0
-1 -629 0
-2 -630 0
-3 -631 0
-4 -632 0
-1 -633 0
-2 -634 0
-3 -635 0
-4 -636 0
-1 -637 0
-2 -638 0
-3 -639 0
-4 -640 0
-1 -641 0
-2 -642 0
-3 -643 0
-4 -644 0
-1 -645 0
-2 -646 0
-3 -647 0
-4 -648 0
-1 -649 0
-2 -650 0
-3 -651 0
-4 -652 0
-1 -653 0
-2 -654 0
-3 -655 0
-4 -656 0
-1 -657 0
-2 -658 0
-3 -659 0
-4 -660 0
-1 -661 0
-2 -662 0
-3 -663 0
-4 -664 0
-1 -665 0
-2 -666 0
-3 -667 0
-4 -668 0
-1 -669 0
-2 -670 0
-3 -671 0
-4 -672 0
-1 -673 0
-2 -674 0
-3 -675 0
-4 -676 0
-1 -677 0
-2 -678 0
-3 -679 0
-4 -680 0
-1 -681 0
-2 -682 0
-3 -683 0
-4 -684 0
-1 -685 0
-2 -686 0
-3 -687 0
-4 -688 0
-1 -689 0
-2 -690 0
-3 -691 0
-4 -692 0
-1 -693 0
-2 -694 0
-3 -695 0
-4 -696 0
-1 -697 0
-2 -698 0
-3 -699 0
-4 -700 0
-1 -701 0
-2 -702 0
-3 -703 0
-4 -704 0
-1 -705 0
-2 -706 0
-3 -707 0
-4 -708 0
-1 -1593 0
-2 -1594 0
-3 -1595 0
-4 -1596 0
-1 -1597 0
-2 -1598 0
-3 -1599 0
-4 -1600 0
-1 -1601 0
-2 -1602 0
-3 -1603 0
-4 -1604 0
-1 -1605 0
-2 -1606 0
-3 -1607 0
-4 -1608 0
-1 -1609 0
-2 -1610 0
-3 -1611 0
-4 -1612 0
-1 -1613 0
-2 -1614 0
-3 -1615 0
-4 -1616 0
-1 -1617 0
-2 -1618 0
-3 -1619 0
-4 -1620 0
-1 -1621 0
-2 -1622 0
-3 -1623 0
-4 -1624 0
-1 -1625 0
-2 -1626 0
-3 -1627 0
-4 -1628 0
-1 -1629 0
-2 -1630 0
-3 -1631 0
-4 -1632 0
-1 -1633 0
-2 -1634 0
-3 -1635 0
-4 -1636 0
-1 -1637 0
-2 -1638 0
-3 -1639 0
-4 -1640 0
-5 -489 0
-6 -490 0
-7 -491 0
-8 -492 0
-5 -493 0
-6 -494 0
-7 -495 0
-8 -496 0
-5 -517 0
-6 -518 0
-7 -519 0
-8 -520 0
-5 -537 0
-6 -538 0
-7 -539 0
-8 -540 0
-5 -565 0
-6 -566 0
-7 -567 0
-8 -568 0
-5 -581 0
-6 -582 0
-7 -583 0
-8 -584 0
-5 -641 0
-6 -642 0
-7 -643 0
-8 -644 0
-5 -689 0
-6 -690 0
-7 -691 0
-8 -692 0
-5 -717 0
-6 -718 0
-7 -719 0
-8 -720 0
-5 -749 0
-6 -750 0
-7 -751 0
-8 -752 0
-5 -761 0
-6 -762 0
-7 -763 0
-8 -764 0
-5 -801 0
-6 -802 0
-7 -803 0
-8 -804 0
-5 -805 0
-6 -806 0
-7 -807 0
-8 -808 0
-5 -813 0
-6 -814 0
-7 -815 0
-8 -816 0
-5 -877 0
-6 -878 0
-7 -879 0
-8 -880 0
-9 -541 0
-10 -542 0
-11 -543 0
-12 -544 0
-9 -569 0
-10 -570 0
-11 -571 0
-12 -572 0
-9 -585 0
-10 -586 0
-11 -587 0
-12 -588 0
-9 -697 0
-10 -698 0
-11 -699 0
-12 -700 0
-9 -721 0
-10 -722 0
-11 -723 0
-12 -724 0
-9 -753 0
-10 -754 0
-11 -755 0
-12 -756 0
-9 -757 0
-10 -758 0
-11 -759 0
-12 -760 0
-9 -765 0
-10 -766 0
-11 -767 0
-12 -768 0
-9 -809 0
-10 -810 0
-11 -811 0
-12 -812 0
-9 -817 0
-10 -818 0
-11 -819 0
-12 -820 0
-13 -537 0
-14 -538 0
-15 -539 0
-16 -540 0
-13 -573 0
-14 -574 0
-15 -575 0
-16 -576 0
-13 -589 0
-14 -590 0
-15 -591 0
-16 -592 0
-13 -653 0
-14 -654 0
-15 -655 0
-16 -656 0
-13 -709 0
-14 -710 0
-15 -711 0
-16 -712 0
-13 -725 0
-14 -726 0
-15 -727 0
-16 -728 0
-13 -761 0
-14 -762 0
-15 -763 0
-16 -764 0
-13 -769 0
-14 -770 0
-15 -771 0
-16 -772 0
-13 -817 0
-14 -818 0
-15 -819 0
-16 -820 0
-13 -825 0
-14 -826 0
-15 -827 0
-16 -828 0
-17 -497 0
-18 -498 0
-19 -499 0
-20 -500 0
-17 -501 0
-18 -502 0
-19 -503 0
-20 -504 0
-17 -521 0
-18 -522 0
-19 -523 0
-20 -524 0
-17 -541 0
-18 -542 0
-19 -543 0
-20 -544 0
-17 -577 0
-18 -578 0
-19 -579 0
-20 -580 0
-17 -593 0
-18 -594 0
-19 -595 0
-20 -596 0
-17 -609 0
-18 -610 0
-19 -611 0
-20 -612 0
-17 -613 0
-18 -614 0
-19 -615 0
-20 -616 0
-17 -661 0
-18 -662 0
-19 -663 0
-20 -664 0
-17 -713 0
-18 -714 0
-19 -715 0
-20 -716 0
-17 -729 0
-18 -730 0
-19 -731 0
-20 -732 0
-17 -765 0
-18 -766 0
-19 -767 0
-20 -768 0
-17 -773 0
-18 -774 0
-19 -775 0
-20 -776 0
-17 -821 0
-18 -822 0
-19 -823 0
-20 -824 0
-17 -829 0
-18 -830 0
-19 -831 0
-20 -832 0
-21 -505 0
-22 -506 0
-23 -507 0
-24 -508 0
-21 -509 0
-22 -510 0
-23 -511 0
-24 -512 0
-21 -521 0
-22 -522 0
-23 -523 0
-24 -524 0
-21 -545 0
-22 -546 0
-23 -547 0
-24 -548 0
-21 -549 0
-22 -550 0
-23 -551 0
-24 -552 0
-21 -581 0
-22 -582 0
-23 -583 0
-24 -584 0
-21 -597 0
-22 -598 0
-23 -599 0
-24 -600 0
-21 -625 0
-22 -626 0
-23 -627 0
-24 -628 0
-21 -673 0
-22 -674 0
-23 -675 0
-24 -676 0
-21 -717 0
-22 -718 0
-23 -719 0
-24 -720 0
-21 -733 0
-22 -734 0
-23 -735 0
-24 -736 0
-21 -769 0
-22 -770 0
-23 -771 0
-24 -772 0
-21 -777 0
-22 -778 0
-23 -779 0
-24 -780 0
-21 -829 0
-22 -830 0
-23 -831 0
-24 -832 0
-21 -837 0
-22 -838 0
-23 -839 0
-24 -840 0
-25 -525 0
-26 -526 0
-27 -527 0
-28 -528 0
-25 -553 0
-26 -554 0
-27 -555 0
-28 -556 0
-25 -585 0
-26 -586 0
-27 -587 0
-28 -588 0
-25 -633 0
-26 -634 0
-27 -635 0
-28 -636 0
-25 -721 0
-26 -722 0
-27 -723 0
-28 -724 0
-25 -737 0
-26 -738 0
-27 -739 0
-28 -740 0
-25 -773 0
-26 -774 0
-27 -775 0
-28 -776 0
-25 -781 0
-26 -782 0
-27 -783 0
-28 -784 0
-25 -833 0
-26 -834 0
-27 -835 0
-28 -836 0
-25 -841 0
-26 -842 0
-27 -843 0
-28 -844 0
-29 -545 0
-30 -546 0
-31 -547 0
-32 -548 0
-29 -557 0
-30 -558 0
-31 -559 0
-32 -560 0
-29 -589 0
-30 -590 0
-31 -591 0
-32 -592 0
-29 -685 0
-30 -686 0
-31 -687 0
-32 -688 0
-29 -725 0
-30 -726 0
-31 -727 0
-32 -728 0
-29 -741 0
-30 -742 0
-31 -743 0
-32 -744 0
-29 -777 0
-30 -778 0
-31 -779 0
-32 -780 0
-29 -785 0
-30 -786 0
-31 -787 0
-32 -788 0
-29 -841 0
-30 -842 0
-31 -843 0
-32 -844 0
-29 -849 0
-30 -850 0
-31 -851 0
-32 -852 0
-33 -473 0
-34 -474 0
-35 -475 0
-36 -476 0
-33 -477 0
-34 -478 0
-35 -479 0
-36 -480 0
-33 -513 0
-34 -514 0
-35 -515 0
-36 -516 0
-33 -525 0
-34 -526 0
-35 -527 0
-36 -528 0
-33 -561 0
-34 -562 0
-35 -563 0
-36 -564 0
-33 -593 0
-34 -594 0
-35 -595 0
-36 -596 0
-33 -645 0
-34 -646 0
-35 -647 0
-36 -648 0
-33 -693 0
-34 -694 0
-35 -695 0
-36 -696 0
-33 -729 0
-34 -730 0
-35 -731 0
-36 -732 0
-33 -745 0
-34 -746 0
-35 -747 0
-36 -748 0
-33 -781 0
-34 -782 0
-35 -783 0
-36 -784 0
-33 -789 0
-34 -790 0
-35 -791 0
-36 -792 0
-33 -845 0
-34 -846 0
-35 -847 0
-36 -848 0
-33 -853 0
-34 -854 0
-35 -855 0
-36 -856 0
-33 -881 0
-34 -882 0
-35 -883 0
-36 -884 0
-37 -481 0
-38 -482 0
-39 -483 0
-40 -484 0
-37 -513 0
-38 -514 0
-39 -515 0
-40 -516 0
-37 -529 0
-38 -530 0
-39 -531 0
-40 -532 0
-37 -549 0
-38 -550 0
-39 -551 0
-40 -552 0
-37 -565 0
-38 -566 0
-39 -567 0
-40 -568 0
-37 -605 0
-38 -606 0
-39 -607 0
-40 -608 0
-37 -657 0
-38 -658 0
-39 -659 0
-40 -660 0
-37 -705 0
-38 -706 0
-39 -707 0
-40 -708 0
-37 -733 0
-38 -734 0
-39 -735 0
-40 -736 0
-37 -749 0
-38 -750 0
-39 -751 0
-40 -752 0
-37 -785 0
-38 -786 0
-39 -787 0
-40 -788 0
-37 -793 0
-38 -794 0
-39 -795 0
-40 -796 0
-37 -853 0
-38 -854 0
-39 -855 0
-40 -856 0
-37 -861 0
-38 -862 0
-39 -863 0
-40 -864 0
-37 -885 0
-38 -886 0
-39 -887 0
-40 -888 0
-41 -533 0
-42 -534 0
-43 -535 0
-44 -536 0
-41 -553 0
-42 -554 0
-43 -555 0
-44 -556 0
-41 -569 0
-42 -570 0
-43 -571 0
-44 -572 0
-41 -665 0
-42 -666 0
-43 -667 0
-44 -668 0
-41 -737 0
-42 -738 0
-43 -739 0
-44 -740 0
-41 -753 0
-42 -754 0
-43 -755 0
-44 -756 0
-41 -789 0
-42 -790 0
-43 -791 0
-44 -792 0
-41 -797 0
-42 -798 0
-43 -799 0
-44 -800 0
-41 -857 0
-42 -858 0
-43 -859 0
-44 -860 0
-41 -865 0
-42 -866 0
-43 -867 0
-44 -868 0
-45 -529 0
-46 -530 0
-47 -531 0
-48 -532 0
-45 -557 0
-46 -558 0
-47 -559 0
-48 -560 0
-45 -573 0
-46 -574 0
-47 -575 0
-48 -576 0
-45 -621 0
-46 -622 0
-47 -623 0
-48 -624 0
-45 -709 0
-46 -710 0
-47 -711 0
-48 -712 0
-45 -741 0
-46 -742 0
-47 -743 0
-48 -744 0
-45 -793 0
-46 -794 0
-47 -795 0
-48 -796 0
-45 -801 0
-46 -802 0
-47 -803 0
-48 -804 0
-45 -865 0
-46 -866 0
-47 -867 0
-48 -868 0
-45 -873 0
-46 -874 0
-47 -875 0
-48 -876 0
-49 -485 0
-50 -486 0
-51 -487 0
-52 -488 0
-49 -517 0
-50 -518 0
-51 -519 0
-52 -520 0
-49 -533 0
-50 -534 0
-51 -535 0
-52 -536 0
-49 -561 0
-50 -562 0
-51 -563 0
-52 -564 0
-49 -577 0
-50 -578 0
-51 -579 0
-52 -580 0
-49 -601 0
-50 -602 0
-51 -603 0
-52 -604 0
-49 -629 0
-50 -630 0
-51 -631 0
-52 -632 0
-49 -677 0
-50 -678 0
-51 -679 0
-52 -680 0
-49 -713 0
-50 -714 0
-51 -715 0
-52 -716 0
-49 -745 0
-50 -746 0
-51 -747 0
-52 -748 0
-49 -757 0
-50 -758 0
-51 -759 0
-52 -760 0
-49 -797 0
-50 -798 0
-51 -799 0
-52 -800 0
-49 -805 0
-50 -806 0
-51 -807 0
-52 -808 0
-49 -869 0
-50 -870 0
-51 -871 0
-52 -872 0
-49 -889 0
-50 -890 0
-51 -891 0
-52 -892 0
-53 -397 0
-54 -398 0
-55 -399 0
-56 -400 0
-53 -401 0
-54 -402 0
-55 -403 0
-56 -404 0
-53 -453 0
-54 -454 0
-55 -455 0
-56 -456 0
-53 -457 0
-54 -458 0
-55 -459 0
-56 -460 0
-53 -517 0
-54 -518 0
-55 -519 0
-56 -520 0
-53 -521 0
-54 -522 0
-55 -523 0
-56 -524 0
-53 -757 0
-54 -758 0
-55 -759 0
-56 -760 0
-53 -769 0
-54 -770 0
-55 -771 0
-56 -772 0
-53 -877 0
-54 -878 0
-55 -879 0
-56 -880 0
-57 -353 0
-58 -354 0
-59 -355 0
-60 -356 0
-57 -421 0
-58 -422 0
-59 -423 0
-60 -424 0
-57 -425 0
-58 -426 0
-59 -427 0
-60 -428 0
-57 -469 0
-58 -470 0
-59 -471 0
-60 -472 0
-57 -513 0
-58 -514 0
-59 -515 0
-60 -516 0
-57 -521 0
-58 -522 0
-59 -523 0
-60 -524 0
-57 -773 0
-58 -774 0
-59 -775 0
-60 -776 0
-57 -785 0
-58 -786 0
-59 -787 0
-60 -788 0
-57 -881 0
-58 -882 0
-59 -883 0
-60 -884 0
-61 -373 0
-62 -374 0
-63 -375 0
-64 -376 0
-61 -377 0
-62 -378 0
-63 -379 0
-64 -380 0
-61 -437 0
-62 -438 0
-63 -439 0
-64 -440 0
-61 -441 0
-62 -442 0
-63 -443 0
-64 -444 0
-61 -513 0
-62 -514 0
-63 -515 0
-64 -516 0
-61 -517 0
-62 -518 0
-63 -519 0
-64 -520 0
-61 -789 0
-62 -790 0
-63 -791 0
-64 -792 0
-61 -801 0
-62 -802 0
-63 -803 0
-64 -804 0
-61 -885 0
-62 -886 0
-63 -887 0
-64 -888 0
-61 -889 0
-62 -890 0
-63 -891 0
-64 -892 0
-65 -337 0
-66 -338 0
-67 -339 0
-68 -340 0
-65 -389 0
-66 -390 0
-67 -391 0
-68 -392 0
-65 -405 0
-66 -406 0
-67 -407 0
-68 -408 0
-65 -645 0
-66 -646 0
-67 -647 0
-68 -648 0
-65 -701 0
-66 -702 0
-67 -703 0
-68 -704 0
-65 -805 0
-66 -806 0
-67 -807 0
-68 -808 0
-65 -825 0
-66 -826 0
-67 -827 0
-68 -828 0
-65 -905 0
-66 -906 0
-67 -907 0
-68 -908 0
-65 -909 0
-66 -910 0
-67 -911 0
-68 -912 0
-69 -333 0
-70 -334 0
-71 -335 0
-72 -336 0
-69 -393 0
-70 -394 0
-71 -395 0
-72 -396 0
-69 -409 0
-70 -410 0
-71 -411 0
-72 -412 0
-69 -505 0
-70 -506 0
-71 -507 0
-72 -508 0
-69 -605 0
-70 -606 0
-71 -607 0
-72 -608 0
-69 -649 0
-70 -650 0
-71 -651 0
-72 -652 0
-69 -705 0
-70 -706 0
-71 -707 0
-72 -708 0
-69 -809 0
-70 -810 0
-71 -811 0
-72 -812 0
-69 -829 0
-70 -830 0
-71 -831 0
-72 -832 0
-69 -913 0
-70 -914 0
-71 -915 0
-72 -916 0
-69 -917 0
-70 -918 0
-71 -919 0
-72 -920 0
-73 -305 0
-74 -306 0
-75 -307 0
-76 -308 0
-73 -357 0
-74 -358 0
-75 -359 0
-76 -360 0
-73 -413 0
-74 -414 0
-75 -415 0
-76 -416 0
-73 -501 0
-74 -502 0
-75 -503 0
-76 -504 0
-73 -601 0
-74 -602 0
-75 -603 0
-76 -604 0
-73 -637 0
-74 -638 0
-75 -639 0
-76 -640 0
-73 -677 0
-74 -678 0
-75 -679 0
-76 -680 0
-73 -829 0
-74 -830 0
-75 -831 0
-76 -832 0
-73 -849 0
-74 -850 0
-75 -851 0
-76 -852 0
-73 -929 0
-74 -930 0
-75 -931 0
-76 -932 0
-73 -933 0
-74 -934 0
-75 -935 0
-76 -936 0
-77 -349 0
-78 -350 0
-79 -351 0
-80 -352 0
-77 -361 0
-78 -362 0
-79 -363 0
-80 -364 0
-77 -417 0
-78 -418 0
-79 -419 0
-80 -420 0
-77 -641 0
-78 -642 0
-79 -643 0
-80 -644 0
-77 -681 0
-78 -682 0
-79 -683 0
-80 -684 0
-77 -833 0
-78 -834 0
-79 -835 0
-80 -836 0
-77 -853 0
-78 -854 0
-79 -855 0
-80 -856 0
-77 -937 0
-78 -938 0
-79 -939 0
-80 -940 0
-77 -941 0
-78 -942 0
-79 -943 0
-80 -944 0
-81 -313 0
-82 -314 0
-83 -315 0
-84 -316 0
-81 -373 0
-82 -374 0
-83 -375 0
-84 -376 0
-81 -485 0
-82 -486 0
-83 -487 0
-84 -488 0
-81 -661 0
-82 -662 0
-83 -663 0
-84 -664 0
-81 -705 0
-82 -706 0
-83 -707 0
-84 -708 0
-81 -869 0
-82 -870 0
-83 -871 0
-84 -872 0
-85 -321 0
-86 -322 0
-87 -323 0
-88 -324 0
-85 -365 0
-86 -366 0
-87 -367 0
-88 -368 0
-85 -381 0
-86 -382 0
-87 -383 0
-88 -384 0
-85 -477 0
-86 -478 0
-87 -479 0
-88 -480 0
-85 -609 0
-86 -610 0
-87 -611 0
-88 -612 0
-85 -613 0
-86 -614 0
-87 -615 0
-88 -616 0
-85 -669 0
-86 -670 0
-87 -671 0
-88 -672 0
-85 -853 0
-86 -854 0
-87 -855 0
-88 -856 0
-85 -873 0
-86 -874 0
-87 -875 0
-88 -876 0
-85 -897 0
-86 -898 0
-87 -899 0
-88 -900 0
-85 -953 0
-86 -954 0
-87 -955 0
-88 -956 0
-85 -957 0
-86 -958 0
-87 -959 0
-88 -960 0
-89 -317 0
-90 -318 0
-91 -319 0
-92 -320 0
-89 -369 0
-90 -370 0
-91 -371 0
-92 -372 0
-89 -385 0
-90 -386 0
-91 -387 0
-92 -388 0
-89 -489 0
-90 -490 0
-91 -491 0
-92 -492 0
-89 -597 0
-90 -598 0
-91 -599 0
-92 -600 0
-89 -617 0
-90 -618 0
-91 -619 0
-92 -620 0
-89 -673 0
-90 -674 0
-91 -675 0
-92 -676 0
-89 -805 0
-90 -806 0
-91 -807 0
-92 -808 0
-89 -857 0
-90 -858 0
-91 -859 0
-92 -860 0
-89 -893 0
-90 -894 0
-91 -895 0
-92 -896 0
-89 -961 0
-90 -962 0
-91 -963 0
-92 -964 0
-89 -965 0
-90 -966 0
-91 -967 0
-92 -968 0
-93 -325 0
-94 -326 0
-95 -327 0
-96 -328 0
-93 -377 0
-94 -378 0
-95 -379 0
-96 -380 0
-93 -481 0
-94 -482 0
-95 -483 0
-96 -484 0
-93 -625 0
-94 -626 0
-95 -627 0
-96 -628 0
-93 -677 0
-94 -678 0
-95 -679 0
-96 -680 0
-93 -861 0
-94 -862 0
-95 -863 0
-96 -864 0
-97 -325 0
-98 -326 0
-99 -327 0
-100 -328 0
-97 -337 0
-98 -338 0
-99 -339 0
-100 -340 0
-97 -445 0
-98 -446 0
-99 -447 0
-100 -448 0
-97 -457 0
-98 -458 0
-99 -459 0
-100 -460 0
-97 -721 0
-98 -722 0
-99 -723 0
-100 -724 0
-97 -749 0
-98 -750 0
-99 -751 0
-100 -752 0
-97 -909 0
-98 -910 0
-99 -911 0
-100 -912 0
-101 -333 0
-102 -334 0
-103 -335 0
-104 -336 0
-101 -345 0
-102 -346 0
-103 -347 0
-104 -348 0
-101 -453 0
-102 -454 0
-103 -455 0
-104 -456 0
-101 -465 0
-102 -466 0
-103 -467 0
-104 -468 0
-101 -709 0
-102 -710 0
-103 -711 0
-104 -712 0
-101 -729 0
-102 -730 0
-103 -731 0
-104 -732 0
-101 -913 0
-102 -914 0
-103 -915 0
-104 -916 0
-105 -305 0
-106 -306 0
-107 -307 0
-108 -308 0
-105 -341 0
-106 -342 0
-107 -343 0
-108 -344 0
-105 -425 0
-106 -426 0
-107 -427 0
-108 -428 0
-105 -461 0
-106 -462 0
-107 -463 0
-108 -464 0
-105 -717 0
-106 -718 0
-107 -719 0
-108 -720 0
-105 -737 0
-106 -738 0
-107 -739 0
-108 -740 0
-105 -933 0
-106 -934 0
-107 -935 0
-108 -936 0
-109 -313 0
-110 -314 0
-111 -315 0
-112 -316 0
-109 -349 0
-110 -350 0
-111 -351 0
-112 -352 0
-109 -433 0
-110 -434 0
-111 -435 0
-112 -436 0
-109 -469 0
-110 -470 0
-111 -471 0
-112 -472 0
-109 -725 0
-110 -726 0
-111 -727 0
-112 -728 0
-109 -745 0
-110 -746 0
-111 -747 0
-112 -748 0
-109 -937 0
-110 -938 0
-111 -939 0
-112 -940 0
-113 -245 0
-114 -246 0
-115 -247 0
-116 -248 0
-113 -249 0
-114 -250 0
-115 -251 0
-116 -252 0
-113 -321 0
-114 -322 0
-115 -323 0
-116 -324 0
-113 -337 0
-114 -338 0
-115 -339 0
-116 -340 0
-113 -497 0
-114 -498 0
-115 -499 0
-116 -500 0
-113 -561 0
-114 -562 0
-115 -563 0
-116 -564 0
-113 -585 0
-114 -586 0
-115 -587 0
-116 -588 0
-113 -765 0
-114 -766 0
-115 -767 0
-116 -768 0
-113 -797 0
-114 -798 0
-115 -799 0
-116 -800 0
-113 -897 0
-114 -898 0
-115 -899 0
-116 -900 0
-113 -905 0
-114 -906 0
-115 -907 0
-116 -908 0
-113 -1033 0
-114 -1034 0
-115 -1035 0
-116 -1036 0
-117 -253 0
-118 -254 0
-119 -255 0
-120 -256 0
-117 -257 0
-118 -258 0
-119 -259 0
-120 -260 0
-117 -293 0
-118 -294 0
-119 -295 0
-120 -296 0
-117 -325 0
-118 -326 0
-119 -327 0
-120 -328 0
-117 -341 0
-118 -342 0
-119 -343 0
-120 -344 0
-117 -505 0
-118 -506 0
-119 -507 0
-120 -508 0
-117 -565 0
-118 -566 0
-119 -567 0
-120 -568 0
-117 -589 0
-118 -590 0
-119 -591 0
-120 -592 0
-117 -769 0
-118 -770 0
-119 -771 0
-120 -772 0
-117 -801 0
-118 -802 0
-119 -803 0
-120 -804 0
-117 -901 0
-118 -902 0
-119 -903 0
-120 -904 0
-117 -985 0
-118 -986 0
-119 -987 0
-120 -988 0
-117 -993 0
-118 -994 0
-119 -995 0
-120 -996 0
-121 -257 0
-122 -258 0
-123 -259 0
-124 -260 0
-121 -261 0
-122 -262 0
-123 -263 0
-124 -264 0
-121 -297 0
-122 -298 0
-123 -299 0
-124 -300 0
-121 -329 0
-122 -330 0
-123 -331 0
-124 -332 0
-121 -345 0
-122 -346 0
-123 -347 0
-124 -348 0
-121 -569 0
-122 -570 0
-123 -571 0
-124 -572 0
-121 -593 0
-122 -594 0
-123 -595 0
-124 -596 0
-121 -757 0
-122 -758 0
-123 -759 0
-124 -760 0
-121 -773 0
-122 -774 0
-123 -775 0
-124 -776 0
-121 -921 0
-122 -922 0
-123 -923 0
-124 -924 0
-121 -989 0
-122 -990 0
-123 -991 0
-124 -992 0
-121 -997 0
-122 -998 0
-123 -999 0
-124 -1000 0
-125 -265 0
-126 -266 0
-127 -267 0
-128 -268 0
-125 -269 0
-126 -270 0
-127 -271 0
-128 -272 0
-125 -333 0
-126 -334 0
-127 -335 0
-128 -336 0
-125 -349 0
-126 -350 0
-127 -351 0
-128 -352 0
-125 -493 0
-126 -494 0
-127 -495 0
-128 -496 0
-125 -549 0
-126 -550 0
-127 -551 0
-128 -552 0
-125 -573 0
-126 -574 0
-127 -575 0
-128 -576 0
-125 -761 0
-126 -762 0
-127 -763 0
-128 -764 0
-125 -777 0
-126 -778 0
-127 -779 0
-128 -780 0
-125 -917 0
-126 -918 0
-127 -919 0
-128 -920 0
-125 -1037 0
-126 -1038 0
-127 -1039 0
-128 -1040 0
-129 -269 0
-130 -270 0
-131 -271 0
-132 -272 0
-129 -273 0
-130 -274 0
-131 -275 0
-132 -276 0
-129 -305 0
-130 -306 0
-131 -307 0
-132 -308 0
-129 -337 0
-130 -338 0
-131 -339 0
-132 -340 0
-129 -473 0
-130 -474 0
-131 -475 0
-132 -476 0
-129 -553 0
-130 -554 0
-131 -555 0
-132 -556 0
-129 -577 0
-130 -578 0
-131 -579 0
-132 -580 0
-129 -765 0
-130 -766 0
-131 -767 0
-132 -768 0
-129 -781 0
-130 -782 0
-131 -783 0
-132 -784 0
-129 -929 0
-130 -930 0
-131 -931 0
-132 -932 0
-129 -1041 0
-130 -1042 0
-131 -1043 0
-132 -1044 0
-133 -209 0
-134 -210 0
-135 -211 0
-136 -212 0
-133 -277 0
-134 -278 0
-135 -279 0
-136 -280 0
-133 -301 0
-134 -302 0
-135 -303 0
-136 -304 0
-133 -309 0
-134 -310 0
-135 -311 0
-136 -312 0
-133 -341 0
-134 -342 0
-135 -343 0
-136 -344 0
-133 -557 0
-134 -558 0
-135 -559 0
-136 -560 0
-133 -581 0
-134 -582 0
-135 -583 0
-136 -584 0
-133 -769 0
-134 -770 0
-135 -771 0
-136 -772 0
-133 -785 0
-134 -786 0
-135 -787 0
-136 -788 0
-133 -925 0
-134 -926 0
-135 -927 0
-136 -928 0
-133 -1001 0
-134 -1002 0
-135 -1003 0
-136 -1004 0
-133 -1009 0
-134 -1010 0
-135 -1011 0
-136 -1012 0
-137 -209 0
-138 -210 0
-139 -211 0
-140 -212 0
-137 -213 0
-138 -214 0
-139 -215 0
-140 -216 0
-137 -281 0
-138 -282 0
-139 -283 0
-140 -284 0
-137 -313 0
-138 -314 0
-139 -315 0
-140 -316 0
-137 -345 0
-138 -346 0
-139 -347 0
-140 -348 0
-137 -501 0
-138 -502 0
-139 -503 0
-140 -504 0
-137 -561 0
-138 -562 0
-139 -563 0
-140 -564 0
-137 -585 0
-138 -586 0
-139 -587 0
-140 -588 0
-137 -773 0
-138 -774 0
-139 -775 0
-140 -776 0
-137 -789 0
-138 -790 0
-139 -791 0
-140 -792 0
-137 -945 0
-138 -946 0
-139 -947 0
-140 -948 0
-137 -1005 0
-138 -1006 0
-139 -1007 0
-140 -1008 0
-137 -1013 0
-138 -1014 0
-139 -1015 0
-140 -1016 0
-141 -217 0
-142 -218 0
-143 -219 0
-144 -220 0
-141 -221 0
-142 -222 0
-143 -223 0
-144 -224 0
-141 -317 0
-142 -318 0
-143 -319 0
-144 -320 0
-141 -349 0
-142 -350 0
-143 -351 0
-144 -352 0
-141 -509 0
-142 -510 0
-143 -511 0
-144 -512 0
-141 -565 0
-142 -566 0
-143 -567 0
-144 -568 0
-141 -589 0
-142 -590 0
-143 -591 0
-144 -592 0
-141 -777 0
-142 -778 0
-143 -779 0
-144 -780 0
-141 -793 0
-142 -794 0
-143 -795 0
-144 -796 0
-141 -893 0
-142 -894 0
-143 -895 0
-144 -896 0
-141 -941 0
-142 -942 0
-143 -943 0
-144 -944 0
-141 -1045 0
-142 -1046 0
-143 -1047 0
-144 -1048 0
-145 -221 0
-146 -222 0
-147 -223 0
-148 -224 0
-145 -225 0
-146 -226 0
-147 -227 0
-148 -228 0
-145 -305 0
-146 -306 0
-147 -307 0
-148 -308 0
-145 -321 0
-146 -322 0
-147 -323 0
-148 -324 0
-145 -485 0
-146 -486 0
-147 -487 0
-148 -488 0
-145 -569 0
-146 -570 0
-147 -571 0
-148 -572 0
-145 -593 0
-146 -594 0
-147 -595 0
-148 -596 0
-145 -781 0
-146 -782 0
-147 -783 0
-148 -784 0
-145 -797 0
-146 -798 0
-147 -799 0
-148 -800 0
-145 -953 0
-146 -954 0
-147 -955 0
-148 -956 0
-145 -1049 0
-146 -1050 0
-147 -1051 0
-148 -1052 0
-149 -229 0
-150 -230 0
-151 -231 0
-152 -232 0
-149 -233 0
-150 -234 0
-151 -235 0
-152 -236 0
-149 -285 0
-150 -286 0
-151 -287 0
-152 -288 0
-149 -309 0
-150 -310 0
-151 -311 0
-152 -312 0
-149 -325 0
-150 -326 0
-151 -327 0
-152 -328 0
-149 -489 0
-150 -490 0
-151 -491 0
-152 -492 0
-149 -549 0
-150 -550 0
-151 -551 0
-152 -552 0
-149 -573 0
-150 -574 0
-151 -575 0
-152 -576 0
-149 -785 0
-150 -786 0
-151 -787 0
-152 -788 0
-149 -801 0
-150 -802 0
-151 -803 0
-152 -804 0
-149 -949 0
-150 -950 0
-151 -951 0
-152 -952 0
-149 -1017 0
-150 -1018 0
-151 -1019 0
-152 -1020 0
-149 -1025 0
-150 -1026 0
-151 -1027 0
-152 -1028 0
-153 -233 0
-154 -234 0
-155 -235 0
-156 -236 0
-153 -237 0
-154 -238 0
-155 -239 0
-156 -240 0
-153 -289 0
-154 -290 0
-155 -291 0
-156 -292 0
-153 -313 0
-154 -314 0
-155 -315 0
-156 -316 0
-153 -329 0
-154 -330 0
-155 -331 0
-156 -332 0
-153 -477 0
-154 -478 0
-155 -479 0
-156 -480 0
-153 -553 0
-154 -554 0
-155 -555 0
-156 -556 0
-153 -577 0
-154 -578 0
-155 -579 0
-156 -580 0
-153 -757 0
-154 -758 0
-155 -759 0
-156 -760 0
-153 -789 0
-154 -790 0
-155 -791 0
-156 -792 0
-153 -969 0
-154 -970 0
-155 -971 0
-156 -972 0
-153 -1021 0
-154 -1022 0
-155 -1023 0
-156 -1024 0
-153 -1029 0
-154 -1030 0
-155 -1031 0
-156 -1032 0
-157 -241 0
-158 -242 0
-159 -243 0
-160 -244 0
-157 -245 0
-158 -246 0
-159 -247 0
-160 -248 0
-157 -317 0
-158 -318 0
-159 -319 0
-160 -320 0
-157 -333 0
-158 -334 0
-159 -335 0
-160 -336 0
-157 -481 0
-158 -482 0
-159 -483 0
-160 -484 0
-157 -557 0
-158 -558 0
-159 -559 0
-160 -560 0
-157 -581 0
-158 -582 0
-159 -583 0
-160 -584 0
-157 -761 0
-158 -762 0
-159 -763 0
-160 -764 0
-157 -793 0
-158 -794 0
-159 -795 0
-160 -796 0
-157 -965 0
-158 -966 0
-159 -967 0
-160 -968 0
-157 -1053 0
-158 -1054 0
-159 -1055 0
-160 -1056 0
-161 -241 0
-162 -242 0
-163 -243 0
-164 -244 0
-161 -253 0
-162 -254 0
-163 -255 0
-164 -256 0
-161 -377 0
-162 -378 0
-163 -379 0
-164 -380 0
-161 -405 0
-162 -406 0
-163 -407 0
-164 -408 0
-161 -637 0
-162 -638 0
-163 -639 0
-164 -640 0
-161 -689 0
-162 -690 0
-163 -691 0
-164 -692 0
-161 -717 0
-162 -718 0
-163 -719 0
-164 -720 0
-161 -909 0
-162 -910 0
-163 -911 0
-164 -912 0
-161 -985 0
-162 -986 0
-163 -987 0
-164 -988 0
-161 -1053 0
-162 -1054 0
-163 -1055 0
-164 -1056 0
-161 -1057 0
-162 -1058 0
-163 -1059 0
-164 -1060 0
-165 -245 0
-166 -246 0
-167 -247 0
-168 -248 0
-165 -257 0
-166 -258 0
-167 -259 0
-168 -260 0
-165 -289 0
-166 -290 0
-167 -291 0
-168 -292 0
-165 -381 0
-166 -382 0
-167 -383 0
-168 -384 0
-165 -409 0
-166 -410 0
-167 -411 0
-168 -412 0
-165 -641 0
-166 -642 0
-167 -643 0
-168 -644 0
-165 -697 0
-166 -698 0
-167 -699 0
-168 -700 0
-165 -721 0
-166 -722 0
-167 -723 0
-168 -724 0
-165 -749 0
-166 -750 0
-167 -751 0
-168 -752 0
-165 -917 0
-166 -918 0
-167 -919 0
-168 -920 0
-165 -969 0
-166 -970 0
-167 -971 0
-168 -972 0
-165 -973 0
-166 -974 0
-167 -975 0
-168 -976 0
-165 -989 0
-166 -990 0
-167 -991 0
-168 -992 0
-165 -1061 0
-166 -1062 0
-167 -1063 0
-168 -1064 0
-169 -257 0
-170 -258 0
-171 -259 0
-172 -260 0
-169 -269 0
-170 -270 0
-171 -271 0
-172 -272 0
-169 -301 0
-170 -302 0
-171 -303 0
-172 -304 0
-169 -389 0
-170 -390 0
-171 -391 0
-172 -392 0
-169 -417 0
-170 -418 0
-171 -419 0
-172 -420 0
-169 -613 0
-170 -614 0
-171 -615 0
-172 -616 0
-169 -653 0
-170 -654 0
-171 -655 0
-172 -656 0
-169 -709 0
-170 -710 0
-171 -711 0
-172 -712 0
-169 -729 0
-170 -730 0
-171 -731 0
-172 -732 0
-169 -905 0
-170 -906 0
-171 -907 0
-172 -908 0
-169 -925 0
-170 -926 0
-171 -927 0
-172 -928 0
-169 -973 0
-170 -974 0
-171 -975 0
-172 -976 0
-169 -993 0
-170 -994 0
-171 -995 0
-172 -996 0
-169 -1065 0
-170 -1066 0
-171 -1067 0
-172 -1068 0
-173 -261 0
-174 -262 0
-175 -263 0
-176 -264 0
-173 -273 0
-174 -274 0
-175 -275 0
-176 -276 0
-173 -393 0
-174 -394 0
-175 -395 0
-176 -396 0
-173 -421 0
-174 -422 0
-175 -423 0
-176 -424 0
-173 -617 0
-174 -618 0
-175 -619 0
-176 -620 0
-173 -661 0
-174 -662 0
-175 -663 0
-176 -664 0
-173 -713 0
-174 -714 0
-175 -715 0
-176 -716 0
-173 -913 0
-174 -914 0
-175 -915 0
-176 -916 0
-173 -997 0
-174 -998 0
-175 -999 0
-176 -1000 0
-173 -1041 0
-174 -1042 0
-175 -1043 0
-176 -1044 0
-173 -1069 0
-174 -1070 0
-175 -1071 0
-176 -1072 0
-177 -265 0
-178 -266 0
-179 -267 0
-180 -268 0
-177 -277 0
-178 -278 0
-179 -279 0
-180 -280 0
-177 -357 0
-178 -358 0
-179 -359 0
-180 -360 0
-177 -401 0
-178 -402 0
-179 -403 0
-180 -404 0
-177 -625 0
-178 -626 0
-179 -627 0
-180 -628 0
-177 -669 0
-178 -670 0
-179 -671 0
-180 -672 0
-177 -733 0
-178 -734 0
-179 -735 0
-180 -736 0
-177 -933 0
-178 -934 0
-179 -935 0
-180 -936 0
-177 -1001 0
-178 -1002 0
-179 -1003 0
-180 -1004 0
-177 -1037 0
-178 -1038 0
-179 -1039 0
-180 -1040 0
-177 -1073 0
-178 -1074 0
-179 -1075 0
-180 -1076 0
-181 -209 0
-182 -210 0
-183 -211 0
-184 -212 0
-181 -269 0
-182 -270 0
-183 -271 0
-184 -272 0
-181 -297 0
-182 -298 0
-183 -299 0
-184 -300 0
-181 -361 0
-182 -362 0
-183 -363 0
-184 -364 0
-181 -405 0
-182 -406 0
-183 -407 0
-184 -408 0
-181 -633 0
-182 -634 0
-183 -635 0
-184 -636 0
-181 -673 0
-182 -674 0
-183 -675 0
-184 -676 0
-181 -717 0
-182 -718 0
-183 -719 0
-184 -720 0
-181 -737 0
-182 -738 0
-183 -739 0
-184 -740 0
-181 -921 0
-182 -922 0
-183 -923 0
-184 -924 0
-181 -941 0
-182 -942 0
-183 -943 0
-184 -944 0
-181 -977 0
-182 -978 0
-183 -979 0
-184 -980 0
-181 -1005 0
-182 -1006 0
-183 -1007 0
-184 -1008 0
-181 -1077 0
-182 -1078 0
-183 -1079 0
-184 -1080 0
-185 -209 0
-186 -210 0
-187 -211 0
-188 -212 0
-185 -221 0
-186 -222 0
-187 -223 0
-188 -224 0
-185 -285 0
-186 -286 0
-187 -287 0
-188 -288 0
-185 -369 0
-186 -370 0
-187 -371 0
-188 -372 0
-185 -413 0
-186 -414 0
-187 -415 0
-188 -416 0
-185 -645 0
-186 -646 0
-187 -647 0
-188 -648 0
-185 -685 0
-186 -686 0
-187 -687 0
-188 -688 0
-185 -725 0
-186 -726 0
-187 -727 0
-188 -728 0
-185 -745 0
-186 -746 0
-187 -747 0
-188 -748 0
-185 -929 0
-186 -930 0
-187 -931 0
-188 -932 0
-185 -949 0
-186 -950 0
-187 -951 0
-188 -952 0
-185 -977 0
-186 -978 0
-187 -979 0
-188 -980 0
-185 -1009 0
-186 -1010 0
-187 -1011 0
-188 -1012 0
-185 -1081 0
-186 -1082 0
-187 -1083 0
-188 -1084 0
-189 -213 0
-190 -214 0
-191 -215 0
-192 -216 0
-189 -225 0
-190 -226 0
-191 -227 0
-192 -228 0
-189 -373 0
-190 -374 0
-191 -375 0
-192 -376 0
-189 -417 0
-190 -418 0
-191 -419 0
-192 -420 0
-189 -649 0
-190 -650 0
-191 -651 0
-192 -652 0
-189 -693 0
-190 -694 0
-191 -695 0
-192 -696 0
-189 -729 0
-190 -730 0
-191 -731 0
-192 -732 0
-189 -937 0
-190 -938 0
-191 -939 0
-192 -940 0
-189 -1013 0
-190 -1014 0
-191 -1015 0
-192 -1016 0
-189 -1049 0
-190 -1050 0
-191 -1051 0
-192 -1052 0
-189 -1085 0
-190 -1086 0
-191 -1087 0
-192 -1088 0
-193 -217 0
-194 -218 0
-195 -219 0
-196 -220 0
-193 -229 0
-194 -230 0
-195 -231 0
-196 -232 0
-193 -353 0
-194 -354 0
-195 -355 0
-196 -356 0
-193 -381 0
-194 -382 0
-195 -383 0
-196 -384 0
-193 -657 0
-194 -658 0
-195 -659 0
-196 -660 0
-193 -701 0
-194 -702 0
-195 -703 0
-196 -704 0
-193 -749 0
-194 -750 0
-195 -751 0
-196 -752 0
-193 -957 0
-194 -958 0
-195 -959 0
-196 -960 0
-193 -1017 0
-194 -1018 0
-195 -1019 0
-196 -1020 0
-193 -1045 0
-194 -1046 0
-195 -1047 0
-196 -1048 0
-193 -1089 0
-194 -1090 0
-195 -1091 0
-196 -1092 0
-197 -221 0
-198 -222 0
-199 -223 0
-200 -224 0
-197 -233 0
-198 -234 0
-199 -235 0
-200 -236 0
-197 -281 0
-198 -282 0
-199 -283 0
-200 -284 0
-197 -357 0
-198 -358 0
-199 -359 0
-200 -360 0
-197 -385 0
-198 -386 0
-199 -387 0
-200 -388 0
-197 -665 0
-198 -666 0
-199 -667 0
-200 -668 0
-197 -705 0
-198 -706 0
-199 -707 0
-200 -708 0
-197 -733 0
-198 -734 0
-199 -735 0
-200 -736 0
-197 -753 0
-198 -754 0
-199 -755 0
-200 -756 0
-197 -945 0
-198 -946 0
-199 -947 0
-200 -948 0
-197 -965 0
-198 -966 0
-199 -967 0
-200 -968 0
-197 -981 0
-198 -982 0
-199 -983 0
-200 -984 0
-197 -1021 0
-198 -1022 0
-199 -1023 0
-200 -1024 0
-197 -1093 0
-198 -1094 0
-199 -1095 0
-200 -1096 0
-201 -233 0
-202 -234 0
-203 -235 0
-204 -236 0
-201 -245 0
-202 -246 0
-203 -247 0
-204 -248 0
-201 -293 0
-202 -294 0
-203 -295 0
-204 -296 0
-201 -365 0
-202 -366 0
-203 -367 0
-204 -368 0
-201 -393 0
-202 -394 0
-203 -395 0
-204 -396 0
-201 -621 0
-202 -622 0
-203 -623 0
-204 -624 0
-201 -677 0
-202 -678 0
-203 -679 0
-204 -680 0
-201 -713 0
-202 -714 0
-203 -715 0
-204 -716 0
-201 -741 0
-202 -742 0
-203 -743 0
-204 -744 0
-201 -901 0
-202 -902 0
-203 -903 0
-204 -904 0
-201 -953 0
-202 -954 0
-203 -955 0
-204 -956 0
-201 -981 0
-202 -982 0
-203 -983 0
-204 -984 0
-201 -1025 0
-202 -1026 0
-203 -1027 0
-204 -1028 0
-201 -1097 0
-202 -1098 0
-203 -1099 0
-204 -1100 0
-205 -237 0
-206 -238 0
-207 -239 0
-208 -240 0
-205 -249 0
-206 -250 0
-207 -251 0
-208 -252 0
-205 -369 0
-206 -370 0
-207 -371 0
-208 -372 0
-205 -397 0
-206 -398 0
-207 -399 0
-208 -400 0
-205 -629 0
-206 -630 0
-207 -631 0
-208 -632 0
-205 -681 0
-206 -682 0
-207 -683 0
-208 -684 0
-205 -745 0
-206 -746 0
-207 -747 0
-208 -748 0
-205 -961 0
-206 -962 0
-207 -963 0
-208 -964 0
-205 -1029 0
-206 -1030 0
-207 -1031 0
-208 -1032 0
-205 -1033 0
-206 -1034 0
-207 -1035 0
-208 -1036 0
-205 -1101 0
-206 -1102 0
-207 -1103 0
-208 -1104 0
-209 -233 0
-210 -234 0
-211 -235 0
-212 -236 0
-209 -257 0
-210 -258 0
-211 -259 0
-212 -260 0
-209 -369 0
-210 -370 0
-211 -371 0
-212 -372 0
-209 -405 0
-210 -406 0
-211 -407 0
-212 -408 0
-209 -557 0
-210 -558 0
-211 -559 0
-212 -560 0
-209 -585 0
-210 -586 0
-211 -587 0
-212 -588 0
-209 -633 0
-210 -634 0
-211 -635 0
-212 -636 0
-209 -685 0
-210 -686 0
-211 -687 0
-212 -688 0
-209 -817 0
-210 -818 0
-211 -819 0
-212 -820 0
-209 -865 0
-210 -866 0
-211 -867 0
-212 -868 0
-209 -905 0
-210 -906 0
-211 -907 0
-212 -908 0
-209 -965 0
-210 -966 0
-211 -967 0
-212 -968 0
-209 -985 0
-210 -986 0
-211 -987 0
-212 -988 0
-209 -1029 0
-210 -1030 0
-211 -1031 0
-212 -1032 0
-209 -1061 0
-210 -1062 0
-211 -1063 0
-212 -1064 0
-209 -1097 0
-210 -1098 0
-211 -1099 0
-212 -1100 0
-209 -1105 0
-210 -1106 0
-211 -1107 0
-212 -1108 0
-209 -1149 0
-210 -1150 0
-211 -1151 0
-212 -1152 0
-209 -1153 0
-210 -1154 0
-211 -1155 0
-212 -1156 0
-209 -1221 0
-210 -1222 0
-211 -1223 0
-212 -1224 0
-213 -237 0
-214 -238 0
-215 -239 0
-216 -240 0
-213 -261 0
-214 -262 0
-215 -263 0
-216 -264 0
-213 -373 0
-214 -374 0
-215 -375 0
-216 -376 0
-213 -409 0
-214 -410 0
-215 -411 0
-216 -412 0
-213 -501 0
-214 -502 0
-215 -503 0
-216 -504 0
-213 -561 0
-214 -562 0
-215 -563 0
-216 -564 0
-213 -637 0
-214 -638 0
-215 -639 0
-216 -640 0
-213 -693 0
-214 -694 0
-215 -695 0
-216 -696 0
-213 -821 0
-214 -822 0
-215 -823 0
-216 -824 0
-213 -869 0
-214 -870 0
-215 -871 0
-216 -872 0
-213 -913 0
-214 -914 0
-215 -915 0
-216 -916 0
-213 -989 0
-214 -990 0
-215 -991 0
-216 -992 0
-213 -1101 0
-214 -1102 0
-215 -1103 0
-216 -1104 0
-213 -1153 0
-214 -1154 0
-215 -1155 0
-216 -1156 0
-213 -1157 0
-214 -1158 0
-215 -1159 0
-216 -1160 0
-217 -241 0
-218 -242 0
-219 -243 0
-220 -244 0
-217 -265 0
-218 -266 0
-219 -267 0
-220 -268 0
-217 -381 0
-218 -382 0
-219 -383 0
-220 -384 0
-217 -589 0
-218 -590 0
-219 -591 0
-220 -592 0
-217 -701 0
-218 -702 0
-219 -703 0
-220 -704 0
-217 -825 0
-218 -826 0
-219 -827 0
-220 -828 0
-217 -873 0
-218 -874 0
-219 -875 0
-220 -876 0
-217 -1057 0
-218 -1058 0
-219 -1059 0
-220 -1060 0
-217 -1161 0
-218 -1162 0
-219 -1163 0
-220 -1164 0
-221 -245 0
-222 -246 0
-223 -247 0
-224 -248 0
-221 -269 0
-222 -270 0
-223 -271 0
-224 -272 0
-221 -385 0
-222 -386 0
-223 -387 0
-224 -388 0
-221 -413 0
-222 -414 0
-223 -415 0
-224 -416 0
-221 -485 0
-222 -486 0
-223 -487 0
-224 -488 0
-221 -509 0
-222 -510 0
-223 -511 0
-224 -512 0
-221 -565 0
-222 -566 0
-223 -567 0
-224 -568 0
-221 -593 0
-222 -594 0
-223 -595 0
-224 -596 0
-221 -645 0
-222 -646 0
-223 -647 0
-224 -648 0
-221 -705 0
-222 -706 0
-223 -707 0
-224 -708 0
-221 -805 0
-222 -806 0
-223 -807 0
-224 -808 0
-221 -829 0
-222 -830 0
-223 -831 0
-224 -832 0
-221 -901 0
-222 -902 0
-223 -903 0
-224 -904 0
-221 -921 0
-222 -922 0
-223 -923 0
-224 -924 0
-221 -1061 0
-222 -1062 0
-223 -1063 0
-224 -1064 0
-221 -1065 0
-222 -1066 0
-223 -1067 0
-224 -1068 0
-221 -1109 0
-222 -1110 0
-223 -1111 0
-224 -1112 0
-221 -1113 0
-222 -1114 0
-223 -1115 0
-224 -1116 0
-221 -1161 0
-222 -1162 0
-223 -1163 0
-224 -1164 0
-221 -1165 0
-222 -1166 0
-223 -1167 0
-224 -1168 0
-225 -249 0
-226 -250 0
-227 -251 0
-228 -252 0
-225 -273 0
-226 -274 0
-227 -275 0
-228 -276 0
-225 -417 0
-226 -418 0
-227 -419 0
-228 -420 0
-225 -569 0
-226 -570 0
-227 -571 0
-228 -572 0
-225 -649 0
-226 -650 0
-227 -651 0
-228 -652 0
-225 -809 0
-226 -810 0
-227 -811 0
-228 -812 0
-225 -833 0
-226 -834 0
-227 -835 0
-228 -836 0
-225 -1069 0
-226 -1070 0
-227 -1071 0
-228 -1072 0
-225 -1165 0
-226 -1166 0
-227 -1167 0
-228 -1168 0
-229 -253 0
-230 -254 0
-231 -255 0
-232 -256 0
-229 -277 0
-230 -278 0
-231 -279 0
-232 -280 0
-229 -353 0
-230 -354 0
-231 -355 0
-232 -356 0
-229 -389 0
-230 -390 0
-231 -391 0
-232 -392 0
-229 -489 0
-230 -490 0
-231 -491 0
-232 -492 0
-229 -549 0
-230 -550 0
-231 -551 0
-232 -552 0
-229 -617 0
-230 -618 0
-231 -619 0
-232 -620 0
-229 -657 0
-230 -658 0
-231 -659 0
-232 -660 0
-229 -813 0
-230 -814 0
-231 -815 0
-232 -816 0
-229 -837 0
-230 -838 0
-231 -839 0
-232 -840 0
-229 -909 0
-230 -910 0
-231 -911 0
-232 -912 0
-229 -993 0
-230 -994 0
-231 -995 0
-232 -996 0
-229 -1073 0
-230 -1074 0
-231 -1075 0
-232 -1076 0
-229 -1169 0
-230 -1170 0
-231 -1171 0
-232 -1172 0
-229 -1173 0
-230 -1174 0
-231 -1175 0
-232 -1176 0
-233 -257 0
-234 -258 0
-235 -259 0
-236 -260 0
-233 -357 0
-234 -358 0
-235 -359 0
-236 -360 0
-233 -393 0
-234 -394 0
-235 -395 0
-236 -396 0
-233 -553 0
-234 -554 0
-235 -555 0
-236 -556 0
-233 -573 0
-234 -574 0
-235 -575 0
-236 -576 0
-233 -621 0
-234 -622 0
-235 -623 0
-236 -624 0
-233 -665 0
-234 -666 0
-235 -667 0
-236 -668 0
-233 -817 0
-234 -818 0
-235 -819 0
-236 -820 0
-233 -841 0
-234 -842 0
-235 -843 0
-236 -844 0
-233 -917 0
-234 -918 0
-235 -919 0
-236 -920 0
-233 -929 0
-234 -930 0
-235 -931 0
-236 -932 0
-233 -997 0
-234 -998 0
-235 -999 0
-236 -1000 0
-233 -1001 0
-234 -1002 0
-235 -1003 0
-236 -1004 0
-233 -1065 0
-234 -1066 0
-235 -1067 0
-236 -1068 0
-233 -1077 0
-234 -1078 0
-235 -1079 0
-236 -1080 0
-233 -1117 0
-234 -1118 0
-235 -1119 0
-236 -1120 0
-233 -1121 0
-234 -1122 0
-235 -1123 0
-236 -1124 0
-233 -1173 0
-234 -1174 0
-235 -1175 0
-236 -1176 0
-233 -1177 0
-234 -1178 0
-235 -1179 0
-236 -1180 0
-237 -261 0
-238 -262 0
-239 -263 0
-240 -264 0
-237 -361 0
-238 -362 0
-239 -363 0
-240 -364 0
-237 -397 0
-238 -398 0
-239 -399 0
-240 -400 0
-237 -477 0
-238 -478 0
-239 -479 0
-240 -480 0
-237 -577 0
-238 -578 0
-239 -579 0
-240 -580 0
-237 -629 0
-238 -630 0
-239 -631 0
-240 -632 0
-237 -669 0
-238 -670 0
-239 -671 0
-240 -672 0
-237 -821 0
-238 -822 0
-239 -823 0
-240 -824 0
-237 -845 0
-238 -846 0
-239 -847 0
-240 -848 0
-237 -937 0
-238 -938 0
-239 -939 0
-240 -940 0
-237 -1005 0
-238 -1006 0
-239 -1007 0
-240 -1008 0
-237 -1069 0
-238 -1070 0
-239 -1071 0
-240 -1072 0
-237 -1177 0
-238 -1178 0
-239 -1179 0
-240 -1180 0
-237 -1181 0
-238 -1182 0
-239 -1183 0
-240 -1184 0
-241 -265 0
-242 -266 0
-243 -267 0
-244 -268 0
-241 -405 0
-242 -406 0
-243 -407 0
-244 -408 0
-241 -557 0
-242 -558 0
-243 -559 0
-244 -560 0
-241 -637 0
-242 -638 0
-243 -639 0
-244 -640 0
-241 -825 0
-242 -826 0
-243 -827 0
-244 -828 0
-241 -849 0
-242 -850 0
-243 -851 0
-244 -852 0
-241 -1073 0
-242 -1074 0
-243 -1075 0
-244 -1076 0
-241 -1185 0
-242 -1186 0
-243 -1187 0
-244 -1188 0
-245 -269 0
-246 -270 0
-247 -271 0
-248 -272 0
-245 -365 0
-246 -366 0
-247 -367 0
-248 -368 0
-245 -409 0
-246 -410 0
-247 -411 0
-248 -412 0
-245 -481 0
-246 -482 0
-247 -483 0
-248 -484 0
-245 -497 0
-246 -498 0
-247 -499 0
-248 -500 0
-245 -561 0
-246 -562 0
-247 -563 0
-248 -564 0
-245 -581 0
-246 -582 0
-247 -583 0
-248 -584 0
-245 -641 0
-246 -642 0
-247 -643 0
-248 -644 0
-245 -677 0
-246 -678 0
-247 -679 0
-248 -680 0
-245 -829 0
-246 -830 0
-247 -831 0
-248 -832 0
-245 -853 0
-246 -854 0
-247 -855 0
-248 -856 0
-245 -925 0
-246 -926 0
-247 -927 0
-248 -928 0
-245 -945 0
-246 -946 0
-247 -947 0
-248 -948 0
-245 -1077 0
-246 -1078 0
-247 -1079 0
-248 -1080 0
-245 -1081 0
-246 -1082 0
-247 -1083 0
-248 -1084 0
-245 -1125 0
-246 -1126 0
-247 -1127 0
-248 -1128 0
-245 -1129 0
-246 -1130 0
-247 -1131 0
-248 -1132 0
-245 -1185 0
-246 -1186 0
-247 -1187 0
-248 -1188 0
-245 -1189 0
-246 -1190 0
-247 -1191 0
-248 -1192 0
-249 -273 0
-250 -274 0
-251 -275 0
-252 -276 0
-249 -369 0
-250 -370 0
-251 -371 0
-252 -372 0
-249 -585 0
-250 -586 0
-251 -587 0
-252 -588 0
-249 -681 0
-250 -682 0
-251 -683 0
-252 -684 0
-249 -833 0
-250 -834 0
-251 -835 0
-252 -836 0
-249 -857 0
-250 -858 0
-251 -859 0
-252 -860 0
-249 -1085 0
-250 -1086 0
-251 -1087 0
-252 -1088 0
-249 -1189 0
-250 -1190 0
-251 -1191 0
-252 -1192 0
-253 -277 0
-254 -278 0
-255 -279 0
-256 -280 0
-253 -377 0
-254 -378 0
-255 -379 0
-256 -380 0
-253 -413 0
-254 -414 0
-255 -415 0
-256 -416 0
-253 -505 0
-254 -506 0
-255 -507 0
-256 -508 0
-253 -565 0
-254 -566 0
-255 -567 0
-256 -568 0
-253 -649 0
-254 -650 0
-255 -651 0
-256 -652 0
-253 -689 0
-254 -690 0
-255 -691 0
-256 -692 0
-253 -837 0
-254 -838 0
-255 -839 0
-256 -840 0
-253 -861 0
-254 -862 0
-255 -863 0
-256 -864 0
-253 -933 0
-254 -934 0
-255 -935 0
-256 -936 0
-253 -1009 0
-254 -1010 0
-255 -1011 0
-256 -1012 0
-253 -1089 0
-254 -1090 0
-255 -1091 0
-256 -1092 0
-253 -1193 0
-254 -1194 0
-255 -1195 0
-256 -1196 0
-253 -1197 0
-254 -1198 0
-255 -1199 0
-256 -1200 0
-257 -381 0
-258 -382 0
-259 -383 0
-260 -384 0
-257 -417 0
-258 -418 0
-259 -419 0
-260 -420 0
-257 -569 0
-258 -570 0
-259 -571 0
-260 -572 0
-257 -589 0
-258 -590 0
-259 -591 0
-260 -592 0
-257 -653 0
-258 -654 0
-259 -655 0
-260 -656 0
-257 -697 0
-258 -698 0
-259 -699 0
-260 -700 0
-257 -841 0
-258 -842 0
-259 -843 0
-260 -844 0
-257 -865 0
-258 -866 0
-259 -867 0
-260 -868 0
-257 -941 0
-258 -942 0
-259 -943 0
-260 -944 0
-257 -953 0
-258 -954 0
-259 -955 0
-260 -956 0
-257 -1013 0
-258 -1014 0
-259 -1015 0
-260 -1016 0
-257 -1017 0
-258 -1018 0
-259 -1019 0
-260 -1020 0
-257 -1081 0
-258 -1082 0
-259 -1083 0
-260 -1084 0
-257 -1093 0
-258 -1094 0
-259 -1095 0
-260 -1096 0
-257 -1133 0
-258 -1134 0
-259 -1135 0
-260 -1136 0
-257 -1137 0
-258 -1138 0
-259 -1139 0
-260 -1140 0
-257 -1197 0
-258 -1198 0
-259 -1199 0
-260 -1200 0
-257 -1201 0
-258 -1202 0
-259 -1203 0
-260 -1204 0
-261 -385 0
-262 -386 0
-263 -387 0
-264 -388 0
-261 -421 0
-262 -422 0
-263 -423 0
-264 -424 0
-261 -593 0
-262 -594 0
-263 -595 0
-264 -596 0
-261 -661 0
-262 -662 0
-263 -663 0
-264 -664 0
-261 -701 0
-262 -702 0
-263 -703 0
-264 -704 0
-261 -845 0
-262 -846 0
-263 -847 0
-264 -848 0
-261 -869 0
-262 -870 0
-263 -871 0
-264 -872 0
-261 -961 0
-262 -962 0
-263 -963 0
-264 -964 0
-261 -1021 0
-262 -1022 0
-263 -1023 0
-264 -1024 0
-261 -1085 0
-262 -1086 0
-263 -1087 0
-264 -1088 0
-261 -1201 0
-262 -1202 0
-263 -1203 0
-264 -1204 0
-261 -1205 0
-262 -1206 0
-263 -1207 0
-264 -1208 0
-265 -357 0
-266 -358 0
-267 -359 0
-268 -360 0
-265 -573 0
-266 -574 0
-267 -575 0
-268 -576 0
-265 -669 0
-266 -670 0
-267 -671 0
-268 -672 0
-265 -849 0
-266 -850 0
-267 -851 0
-268 -852 0
-265 -873 0
-266 -874 0
-267 -875 0
-268 -876 0
-265 -1089 0
-266 -1090 0
-267 -1091 0
-268 -1092 0
-265 -1209 0
-266 -1210 0
-267 -1211 0
-268 -1212 0
-269 -361 0
-270 -362 0
-271 -363 0
-272 -364 0
-269 -389 0
-270 -390 0
-271 -391 0
-272 -392 0
-269 -473 0
-270 -474 0
-271 -475 0
-272 -476 0
-269 -493 0
-270 -494 0
-271 -495 0
-272 -496 0
-269 -549 0
-270 -550 0
-271 -551 0
-272 -552 0
-269 -577 0
-270 -578 0
-271 -579 0
-272 -580 0
-269 -613 0
-270 -614 0
-271 -615 0
-272 -616 0
-269 -673 0
-270 -674 0
-271 -675 0
-272 -676 0
-269 -805 0
-270 -806 0
-271 -807 0
-272 -808 0
-269 -853 0
-270 -854 0
-271 -855 0
-272 -856 0
-269 -949 0
-270 -950 0
-271 -951 0
-272 -952 0
-269 -969 0
-270 -970 0
-271 -971 0
-272 -972 0
-269 -1093 0
-270 -1094 0
-271 -1095 0
-272 -1096 0
-269 -1097 0
-270 -1098 0
-271 -1099 0
-272 -1100 0
-269 -1141 0
-270 -1142 0
-271 -1143 0
-272 -1144 0
-269 -1145 0
-270 -1146 0
-271 -1147 0
-272 -1148 0
-269 -1209 0
-270 -1210 0
-271 -1211 0
-272 -1212 0
-269 -1213 0
-270 -1214 0
-271 -1215 0
-272 -1216 0
-273 -393 0
-274 -394 0
-275 -395 0
-276 -396 0
-273 -553 0
-274 -554 0
-275 -555 0
-276 -556 0
-273 -617 0
-274 -618 0
-275 -619 0
-276 -620 0
-273 -809 0
-274 -810 0
-275 -811 0
-276 -812 0
-273 -857 0
-274 -858 0
-275 -859 0
-276 -860 0
-273 -1101 0
-274 -1102 0
-275 -1103 0
-276 -1104 0
-273 -1213 0
-274 -1214 0
-275 -1215 0
-276 -1216 0
-277 -365 0
-278 -366 0
-279 -367 0
-280 -368 0
-277 -401 0
-278 -402 0
-279 -403 0
-280 -404 0
-277 -581 0
-278 -582 0
-279 -583 0
-280 -584 0
-277 -625 0
-278 -626 0
-279 -627 0
-280 -628 0
-277 -681 0
-278 -682 0
-279 -683 0
-280 -684 0
-277 -813 0
-278 -814 0
-279 -815 0
-280 -816 0
-277 -861 0
-278 -862 0
-279 -863 0
-280 -864 0
-277 -957 0
-278 -958 0
-279 -959 0
-280 -960 0
-277 -1025 0
-278 -1026 0
-279 -1027 0
-280 -1028 0
-277 -1057 0
-278 -1058 0
-279 -1059 0
-280 -1060 0
-277 -1217 0
-278 -1218 0
-279 -1219 0
-280 -1220 0
-277 -1221 0
-278 -1222 0
-279 -1223 0
-280 -1224 0
-281 -345 0
-282 -346 0
-283 -347 0
-284 -348 0
-281 -441 0
-282 -442 0
-283 -443 0
-284 -444 0
-281 -533 0
-282 -534 0
-283 -535 0
-284 -536 0
-281 -753 0
-282 -754 0
-283 -755 0
-284 -756 0
-281 -889 0
-282 -890 0
-283 -891 0
-284 -892 0
-281 -997 0
-282 -998 0
-283 -999 0
-284 -1000 0
-281 -1105 0
-282 -1106 0
-283 -1107 0
-284 -1108 0
-281 -1157 0
-282 -1158 0
-283 -1159 0
-284 -1160 0
-285 -325 0
-286 -326 0
-287 -327 0
-288 -328 0
-285 -469 0
-286 -470 0
-287 -471 0
-288 -472 0
-285 -545 0
-286 -546 0
-287 -547 0
-288 -548 0
-285 -725 0
-286 -726 0
-287 -727 0
-288 -728 0
-285 -985 0
-286 -986 0
-287 -987 0
-288 -988 0
-285 -1117 0
-286 -1118 0
-287 -1119 0
-288 -1120 0
-285 -1169 0
-286 -1170 0
-287 -1171 0
-288 -1172 0
-289 -313 0
-290 -314 0
-291 -315 0
-292 -316 0
-289 -457 0
-290 -458 0
-291 -459 0
-292 -460 0
-289 -541 0
-290 -542 0
-291 -543 0
-292 -544 0
-289 -721 0
-290 -722 0
-291 -723 0
-292 -724 0
-289 -1013 0
-290 -1014 0
-291 -1015 0
-292 -1016 0
-289 -1121 0
-290 -1122 0
-291 -1123 0
-292 -1124 0
-289 -1181 0
-290 -1182 0
-291 -1183 0
-292 -1184 0
-293 -341 0
-294 -342 0
-295 -343 0
-296 -344 0
-293 -437 0
-294 -438 0
-295 -439 0
-296 -440 0
-293 -529 0
-294 -530 0
-295 -531 0
-296 -532 0
-293 -741 0
-294 -742 0
-295 -743 0
-296 -744 0
-293 -885 0
-294 -886 0
-295 -887 0
-296 -888 0
-293 -1001 0
-294 -1002 0
-295 -1003 0
-296 -1004 0
-293 -1133 0
-294 -1134 0
-295 -1135 0
-296 -1136 0
-293 -1193 0
-294 -1194 0
-295 -1195 0
-296 -1196 0
-297 -329 0
-298 -330 0
-299 -331 0
-300 -332 0
-297 -425 0
-298 -426 0
-299 -427 0
-300 -428 0
-297 -525 0
-298 -526 0
-299 -527 0
-300 -528 0
-297 -737 0
-298 -738 0
-299 -739 0
-300 -740 0
-297 -881 0
-298 -882 0
-299 -883 0
-300 -884 0
-297 -1029 0
-298 -1030 0
-299 -1031 0
-300 -1032 0
-297 -1137 0
-298 -1138 0
-299 -1139 0
-300 -1140 0
-297 -1205 0
-298 -1206 0
-299 -1207 0
-300 -1208 0
-301 -309 0
-302 -310 0
-303 -311 0
-304 -312 0
-301 -453 0
-302 -454 0
-303 -455 0
-304 -456 0
-301 -537 0
-302 -538 0
-303 -539 0
-304 -540 0
-301 -709 0
-302 -710 0
-303 -711 0
-304 -712 0
-301 -877 0
-302 -878 0
-303 -879 0
-304 -880 0
-301 -1017 0
-302 -1018 0
-303 -1019 0
-304 -1020 0
-301 -1149 0
-302 -1150 0
-303 -1151 0
-304 -1152 0
-301 -1217 0
-302 -1218 0
-303 -1219 0
-304 -1220 0
-305 -461 0
-306 -462 0
-307 -463 0
-308 -464 0
-305 -501 0
-306 -502 0
-307 -503 0
-308 -504 0
-305 -601 0
-306 -602 0
-307 -603 0
-308 -604 0
-305 -765 0
-306 -766 0
-307 -767 0
-308 -768 0
-305 -797 0
-306 -798 0
-307 -799 0
-308 -800 0
-305 -1097 0
-306 -1098 0
-307 -1099 0
-308 -1100 0
-305 -1109 0
-306 -1110 0
-307 -1111 0
-308 -1112 0
-305 -1241 0
-306 -1242 0
-307 -1243 0
-308 -1244 0
-309 -441 0
-310 -442 0
-311 -443 0
-312 -444 0
-309 -509 0
-310 -510 0
-311 -511 0
-312 -512 0
-309 -769 0
-310 -770 0
-311 -771 0
-312 -772 0
-309 -801 0
-310 -802 0
-311 -803 0
-312 -804 0
-309 -1057 0
-310 -1058 0
-311 -1059 0
-312 -1060 0
-309 -1065 0
-310 -1066 0
-311 -1067 0
-312 -1068 0
-309 -1105 0
-310 -1106 0
-311 -1107 0
-312 -1108 0
-309 -1225 0
-310 -1226 0
-311 -1227 0
-312 -1228 0
-313 -469 0
-314 -470 0
-315 -471 0
-316 -472 0
-313 -485 0
-314 -486 0
-315 -487 0
-316 -488 0
-313 -757 0
-314 -758 0
-315 -759 0
-316 -760 0
-313 -773 0
-314 -774 0
-315 -775 0
-316 -776 0
-313 -1061 0
-314 -1062 0
-315 -1063 0
-316 -1064 0
-313 -1069 0
-314 -1070 0
-315 -1071 0
-316 -1072 0
-313 -1117 0
-314 -1118 0
-315 -1119 0
-316 -1120 0
-317 -449 0
-318 -450 0
-319 -451 0
-320 -452 0
-317 -489 0
-318 -490 0
-319 -491 0
-320 -492 0
-317 -597 0
-318 -598 0
-319 -599 0
-320 -600 0
-317 -761 0
-318 -762 0
-319 -763 0
-320 -764 0
-317 -777 0
-318 -778 0
-319 -779 0
-320 -780 0
-317 -1077 0
-318 -1078 0
-319 -1079 0
-320 -1080 0
-317 -1113 0
-318 -1114 0
-319 -1115 0
-320 -1116 0
-317 -1245 0
-318 -1246 0
-319 -1247 0
-320 -1248 0
-321 -429 0
-322 -430 0
-323 -431 0
-324 -432 0
-321 -477 0
-322 -478 0
-323 -479 0
-324 -480 0
-321 -609 0
-322 -610 0
-323 -611 0
-324 -612 0
-321 -765 0
-322 -766 0
-323 -767 0
-324 -768 0
-321 -781 0
-322 -782 0
-323 -783 0
-324 -784 0
-321 -1065 0
-322 -1066 0
-323 -1067 0
-324 -1068 0
-321 -1125 0
-322 -1126 0
-323 -1127 0
-324 -1128 0
-321 -1249 0
-322 -1250 0
-323 -1251 0
-324 -1252 0
-325 -457 0
-326 -458 0
-327 -459 0
-328 -460 0
-325 -481 0
-326 -482 0
-327 -483 0
-328 -484 0
-325 -769 0
-326 -770 0
-327 -771 0
-328 -772 0
-325 -785 0
-326 -786 0
-327 -787 0
-328 -788 0
-325 -1073 0
-326 -1074 0
-327 -1075 0
-328 -1076 0
-325 -1081 0
-326 -1082 0
-327 -1083 0
-328 -1084 0
-325 -1121 0
-326 -1122 0
-327 -1123 0
-328 -1124 0
-329 -437 0
-330 -438 0
-331 -439 0
-332 -440 0
-329 -497 0
-330 -498 0
-331 -499 0
-332 -500 0
-329 -773 0
-330 -774 0
-331 -775 0
-332 -776 0
-329 -789 0
-330 -790 0
-331 -791 0
-332 -792 0
-329 -1077 0
-330 -1078 0
-331 -1079 0
-332 -1080 0
-329 -1085 0
-330 -1086 0
-331 -1087 0
-332 -1088 0
-329 -1133 0
-330 -1134 0
-331 -1135 0
-332 -1136 0
-329 -1229 0
-330 -1230 0
-331 -1231 0
-332 -1232 0
-333 -465 0
-334 -466 0
-335 -467 0
-336 -468 0
-333 -505 0
-334 -506 0
-335 -507 0
-336 -508 0
-333 -605 0
-334 -606 0
-335 -607 0
-336 -608 0
-333 -777 0
-334 -778 0
-335 -779 0
-336 -780 0
-333 -793 0
-334 -794 0
-335 -795 0
-336 -796 0
-333 -1093 0
-334 -1094 0
-335 -1095 0
-336 -1096 0
-333 -1129 0
-334 -1130 0
-335 -1131 0
-336 -1132 0
-333 -1253 0
-334 -1254 0
-335 -1255 0
-336 -1256 0
-337 -445 0
-338 -446 0
-339 -447 0
-340 -448 0
-337 -781 0
-338 -782 0
-339 -783 0
-340 -784 0
-337 -797 0
-338 -798 0
-339 -799 0
-340 -800 0
-337 -1081 0
-338 -1082 0
-339 -1083 0
-340 -1084 0
-337 -1141 0
-338 -1142 0
-339 -1143 0
-340 -1144 0
-337 -1257 0
-338 -1258 0
-339 -1259 0
-340 -1260 0
-341 -425 0
-342 -426 0
-343 -427 0
-344 -428 0
-341 -493 0
-342 -494 0
-343 -495 0
-344 -496 0
-341 -785 0
-342 -786 0
-343 -787 0
-344 -788 0
-341 -801 0
-342 -802 0
-343 -803 0
-344 -804 0
-341 -1089 0
-342 -1090 0
-343 -1091 0
-344 -1092 0
-341 -1097 0
-342 -1098 0
-343 -1099 0
-344 -1100 0
-341 -1137 0
-342 -1138 0
-343 -1139 0
-344 -1140 0
-341 -1233 0
-342 -1234 0
-343 -1235 0
-344 -1236 0
-345 -453 0
-346 -454 0
-347 -455 0
-348 -456 0
-345 -473 0
-346 -474 0
-347 -475 0
-348 -476 0
-345 -757 0
-346 -758 0
-347 -759 0
-348 -760 0
-345 -789 0
-346 -790 0
-347 -791 0
-348 -792 0
-345 -1093 0
-346 -1094 0
-347 -1095 0
-348 -1096 0
-345 -1101 0
-346 -1102 0
-347 -1103 0
-348 -1104 0
-345 -1149 0
-346 -1150 0
-347 -1151 0
-348 -1152 0
-345 -1237 0
-346 -1238 0
-347 -1239 0
-348 -1240 0
-349 -433 0
-350 -434 0
-351 -435 0
-352 -436 0
-349 -761 0
-350 -762 0
-351 -763 0
-352 -764 0
-349 -793 0
-350 -794 0
-351 -795 0
-352 -796 0
-349 -1061 0
-350 -1062 0
-351 -1063 0
-352 -1064 0
-349 -1145 0
-350 -1146 0
-351 -1147 0
-352 -1148 0
-349 -1261 0
-350 -1262 0
-351 -1263 0
-352 -1264 0
-353 -633 0
-354 -634 0
-355 -635 0
-356 -636 0
-353 -689 0
-354 -690 0
-355 -691 0
-356 -692 0
-353 -909 0
-354 -910 0
-355 -911 0
-356 -912 0
-353 -1217 0
-354 -1218 0
-355 -1219 0
-356 -1220 0
-353 -1225 0
-354 -1226 0
-355 -1227 0
-356 -1228 0
-353 -1261 0
-354 -1262 0
-355 -1263 0
-356 -1264 0
-353 -1265 0
-354 -1266 0
-355 -1267 0
-356 -1268 0
-357 -637 0
-358 -638 0
-359 -639 0
-360 -640 0
-357 -697 0
-358 -698 0
-359 -699 0
-360 -700 0
-357 -917 0
-358 -918 0
-359 -919 0
-360 -920 0
-357 -1161 0
-358 -1162 0
-359 -1163 0
-360 -1164 0
-357 -1221 0
-358 -1222 0
-359 -1223 0
-360 -1224 0
-357 -1269 0
-358 -1270 0
-359 -1271 0
-360 -1272 0
-361 -641 0
-362 -642 0
-363 -643 0
-364 -644 0
-361 -701 0
-362 -702 0
-363 -703 0
-364 -704 0
-361 -969 0
-362 -970 0
-363 -971 0
-364 -972 0
-361 -1153 0
-362 -1154 0
-363 -1155 0
-364 -1156 0
-361 -1165 0
-362 -1166 0
-363 -1167 0
-364 -1168 0
-361 -1273 0
-362 -1274 0
-363 -1275 0
-364 -1276 0
-365 -613 0
-366 -614 0
-367 -615 0
-368 -616 0
-365 -649 0
-366 -650 0
-367 -651 0
-368 -652 0
-365 -925 0
-366 -926 0
-367 -927 0
-368 -928 0
-365 -1161 0
-366 -1162 0
-367 -1163 0
-368 -1164 0
-365 -1173 0
-366 -1174 0
-367 -1175 0
-368 -1176 0
-365 -1281 0
-366 -1282 0
-367 -1283 0
-368 -1284 0
-369 -617 0
-370 -618 0
-371 -619 0
-372 -620 0
-369 -653 0
-370 -654 0
-371 -655 0
-372 -656 0
-369 -905 0
-370 -906 0
-371 -907 0
-372 -908 0
-369 -1165 0
-370 -1166 0
-371 -1167 0
-372 -1168 0
-369 -1177 0
-370 -1178 0
-371 -1179 0
-372 -1180 0
-369 -1285 0
-370 -1286 0
-371 -1287 0
-372 -1288 0
-373 -621 0
-374 -622 0
-375 -623 0
-376 -624 0
-373 -661 0
-374 -662 0
-375 -663 0
-376 -664 0
-373 -913 0
-374 -914 0
-375 -915 0
-376 -916 0
-373 -1181 0
-374 -1182 0
-375 -1183 0
-376 -1184 0
-373 -1249 0
-374 -1250 0
-375 -1251 0
-376 -1252 0
-373 -1289 0
-374 -1290 0
-375 -1291 0
-376 -1292 0
-377 -625 0
-378 -626 0
-379 -627 0
-380 -628 0
-377 -665 0
-378 -666 0
-379 -667 0
-380 -668 0
-377 -933 0
-378 -934 0
-379 -935 0
-380 -936 0
-377 -1169 0
-378 -1170 0
-379 -1171 0
-380 -1172 0
-377 -1245 0
-378 -1246 0
-379 -1247 0
-380 -1248 0
-377 -1289 0
-378 -1290 0
-379 -1291 0
-380 -1292 0
-381 -633 0
-382 -634 0
-383 -635 0
-384 -636 0
-381 -669 0
-382 -670 0
-383 -671 0
-384 -672 0
-381 -941 0
-382 -942 0
-383 -943 0
-384 -944 0
-381 -1173 0
-382 -1174 0
-383 -1175 0
-384 -1176 0
-381 -1185 0
-382 -1186 0
-383 -1187 0
-384 -1188 0
-381 -1293 0
-382 -1294 0
-383 -1295 0
-384 -1296 0
-385 -637 0
-386 -638 0
-387 -639 0
-388 -640 0
-385 -673 0
-386 -674 0
-387 -675 0
-388 -676 0
-385 -921 0
-386 -922 0
-387 -923 0
-388 -924 0
-385 -1177 0
-386 -1178 0
-387 -1179 0
-388 -1180 0
-385 -1189 0
-386 -1190 0
-387 -1191 0
-388 -1192 0
-385 -1297 0
-386 -1298 0
-387 -1299 0
-388 -1300 0
-389 -645 0
-390 -646 0
-391 -647 0
-392 -648 0
-389 -681 0
-390 -682 0
-391 -683 0
-392 -684 0
-389 -949 0
-390 -950 0
-391 -951 0
-392 -952 0
-389 -1185 0
-390 -1186 0
-391 -1187 0
-392 -1188 0
-389 -1197 0
-390 -1198 0
-391 -1199 0
-392 -1200 0
-389 -1305 0
-390 -1306 0
-391 -1307 0
-392 -1308 0
-393 -649 0
-394 -650 0
-395 -651 0
-396 -652 0
-393 -685 0
-394 -686 0
-395 -687 0
-396 -688 0
-393 -929 0
-394 -930 0
-395 -931 0
-396 -932 0
-393 -1189 0
-394 -1190 0
-395 -1191 0
-396 -1192 0
-393 -1201 0
-394 -1202 0
-395 -1203 0
-396 -1204 0
-393 -1309 0
-394 -1310 0
-395 -1311 0
-396 -1312 0
-397 -653 0
-398 -654 0
-399 -655 0
-400 -656 0
-397 -693 0
-398 -694 0
-399 -695 0
-400 -696 0
-397 -937 0
-398 -938 0
-399 -939 0
-400 -940 0
-397 -1205 0
-398 -1206 0
-399 -1207 0
-400 -1208 0
-397 -1229 0
-398 -1230 0
-399 -1231 0
-400 -1232 0
-397 -1257 0
-398 -1258 0
-399 -1259 0
-400 -1260 0
-397 -1313 0
-398 -1314 0
-399 -1315 0
-400 -1316 0
-401 -657 0
-402 -658 0
-403 -659 0
-404 -660 0
-401 -697 0
-402 -698 0
-403 -699 0
-404 -700 0
-401 -957 0
-402 -958 0
-403 -959 0
-404 -960 0
-401 -1193 0
-402 -1194 0
-403 -1195 0
-404 -1196 0
-401 -1233 0
-402 -1234 0
-403 -1235 0
-404 -1236 0
-401 -1253 0
-402 -1254 0
-403 -1255 0
-404 -1256 0
-401 -1313 0
-402 -1314 0
-403 -1315 0
-404 -1316 0
-405 -665 0
-406 -666 0
-407 -667 0
-408 -668 0
-405 -701 0
-406 -702 0
-407 -703 0
-408 -704 0
-405 -965 0
-406 -966 0
-407 -967 0
-408 -968 0
-405 -1197 0
-406 -1198 0
-407 -1199 0
-408 -1200 0
-405 -1209 0
-406 -1210 0
-407 -1211 0
-408 -1212 0
-405 -1317 0
-406 -1318 0
-407 -1319 0
-408 -1320 0
-409 -669 0
-410 -670 0
-411 -671 0
-412 -672 0
-409 -705 0
-410 -706 0
-411 -707 0
-412 -708 0
-409 -945 0
-410 -946 0
-411 -947 0
-412 -948 0
-409 -1201 0
-410 -1202 0
-411 -1203 0
-412 -1204 0
-409 -1213 0
-410 -1214 0
-411 -1215 0
-412 -1216 0
-409 -1321 0
-410 -1322 0
-411 -1323 0
-412 -1324 0
-413 -617 0
-414 -618 0
-415 -619 0
-416 -620 0
-413 -677 0
-414 -678 0
-415 -679 0
-416 -680 0
-413 -901 0
-414 -902 0
-415 -903 0
-416 -904 0
-413 -1209 0
-414 -1210 0
-415 -1211 0
-416 -1212 0
-413 -1221 0
-414 -1222 0
-415 -1223 0
-416 -1224 0
-413 -1329 0
-414 -1330 0
-415 -1331 0
-416 -1332 0
-417 -621 0
-418 -622 0
-419 -623 0
-420 -624 0
-417 -681 0
-418 -682 0
-419 -683 0
-420 -684 0
-417 -953 0
-418 -954 0
-419 -955 0
-420 -956 0
-417 -1153 0
-418 -1154 0
-419 -1155 0
-420 -1156 0
-417 -1213 0
-418 -1214 0
-419 -1215 0
-420 -1216 0
-417 -1333 0
-418 -1334 0
-419 -1335 0
-420 -1336 0
-421 -629 0
-422 -630 0
-423 -631 0
-424 -632 0
-421 -685 0
-422 -686 0
-423 -687 0
-424 -688 0
-421 -961 0
-422 -962 0
-423 -963 0
-424 -964 0
-421 -1157 0
-422 -1158 0
-423 -1159 0
-424 -1160 0
-421 -1237 0
-422 -1238 0
-423 -1239 0
-424 -1240 0
-421 -1241 0
-422 -1242 0
-423 -1243 0
-424 -1244 0
-421 -1265 0
-422 -1266 0
-423 -1267 0
-424 -1268 0
-425 -437 0
-426 -438 0
-427 -439 0
-428 -440 0
-425 -521 0
-426 -522 0
-427 -523 0
-428 -524 0
-425 -717 0
-426 -718 0
-427 -719 0
-428 -720 0
-425 -821 0
-426 -822 0
-427 -823 0
-428 -824 0
-425 -1241 0
-426 -1242 0
-427 -1243 0
-428 -1244 0
-429 -465 0
-430 -466 0
-431 -467 0
-432 -468 0
-429 -753 0
-430 -754 0
-431 -755 0
-432 -756 0
-429 -873 0
-430 -874 0
-431 -875 0
-432 -876 0
-433 -445 0
-434 -446 0
-435 -447 0
-436 -448 0
-433 -725 0
-434 -726 0
-435 -727 0
-436 -728 0
-433 -833 0
-434 -834 0
-435 -835 0
-436 -836 0
-437 -517 0
-438 -518 0
-439 -519 0
-440 -520 0
-437 -713 0
-438 -714 0
-439 -715 0
-440 -716 0
-437 -813 0
-438 -814 0
-439 -815 0
-440 -816 0
-437 -1245 0
-438 -1246 0
-439 -1247 0
-440 -1248 0
-441 -453 0
-442 -454 0
-443 -455 0
-444 -456 0
-441 -513 0
-442 -514 0
-443 -515 0
-444 -516 0
-441 -733 0
-442 -734 0
-443 -735 0
-444 -736 0
-441 -845 0
-442 -846 0
-443 -847 0
-444 -848 0
-441 -1249 0
-442 -1250 0
-443 -1251 0
-444 -1252 0
-445 -721 0
-446 -722 0
-447 -723 0
-448 -724 0
-445 -825 0
-446 -826 0
-447 -827 0
-448 -828 0
-449 -461 0
-450 -462 0
-451 -463 0
-452 -464 0
-449 -741 0
-450 -742 0
-451 -743 0
-452 -744 0
-449 -857 0
-450 -858 0
-451 -859 0
-452 -860 0
-453 -521 0
-454 -522 0
-455 -523 0
-456 -524 0
-453 -729 0
-454 -730 0
-455 -731 0
-456 -732 0
-453 -837 0
-454 -838 0
-455 -839 0
-456 -840 0
-453 -1253 0
-454 -1254 0
-455 -1255 0
-456 -1256 0
-457 -469 0
-458 -470 0
-459 -471 0
-460 -472 0
-457 -517 0
-458 -518 0
-459 -519 0
-460 -520 0
-457 -749 0
-458 -750 0
-459 -751 0
-460 -752 0
-457 -869 0
-458 -870 0
-459 -871 0
-460 -872 0
-457 -1257 0
-458 -1258 0
-459 -1259 0
-460 -1260 0
-461 -737 0
-462 -738 0
-463 -739 0
-464 -740 0
-461 -849 0
-462 -850 0
-463 -851 0
-464 -852 0
-465 -709 0
-466 -710 0
-467 -711 0
-468 -712 0
-465 -809 0
-466 -810 0
-467 -811 0
-468 -812 0
-469 -513 0
-470 -514 0
-471 -515 0
-472 -516 0
-469 -745 0
-470 -746 0
-471 -747 0
-472 -748 0
-469 -861 0
-470 -862 0
-471 -863 0
-472 -864 0
-469 -1261 0
-470 -1262 0
-471 -1263 0
-472 -1264 0
-473 -561 0
-474 -562 0
-475 -563 0
-476 -564 0
-473 -1101 0
-474 -1102 0
-475 -1103 0
-476 -1104 0
-473 -1241 0
-474 -1242 0
-475 -1243 0
-476 -1244 0
-473 -1337 0
-474 -1338 0
-475 -1339 0
-476 -1340 0
-473 -1361 0
-474 -1362 0
-475 -1363 0
-476 -1364 0
-477 -593 0
-478 -594 0
-479 -595 0
-480 -596 0
-477 -1033 0
-478 -1034 0
-479 -1035 0
-480 -1036 0
-477 -1065 0
-478 -1066 0
-479 -1067 0
-480 -1068 0
-477 -1337 0
-478 -1338 0
-479 -1339 0
-480 -1340 0
-481 -549 0
-482 -550 0
-483 -551 0
-484 -552 0
-481 -605 0
-482 -606 0
-483 -607 0
-484 -608 0
-481 -1073 0
-482 -1074 0
-483 -1075 0
-484 -1076 0
-481 -1245 0
-482 -1246 0
-483 -1247 0
-484 -1248 0
-481 -1341 0
-482 -1342 0
-483 -1343 0
-484 -1344 0
-481 -1365 0
-482 -1366 0
-483 -1367 0
-484 -1368 0
-485 -577 0
-486 -578 0
-487 -579 0
-488 -580 0
-485 -601 0
-486 -602 0
-487 -603 0
-488 -604 0
-485 -1069 0
-486 -1070 0
-487 -1071 0
-488 -1072 0
-485 -1249 0
-486 -1250 0
-487 -1251 0
-488 -1252 0
-485 -1345 0
-486 -1346 0
-487 -1347 0
-488 -1348 0
-485 -1369 0
-486 -1370 0
-487 -1371 0
-488 -1372 0
-489 -581 0
-490 -582 0
-491 -583 0
-492 -584 0
-489 -1045 0
-490 -1046 0
-491 -1047 0
-492 -1048 0
-489 -1077 0
-490 -1078 0
-491 -1079 0
-492 -1080 0
-489 -1349 0
-490 -1350 0
-491 -1351 0
-492 -1352 0
-493 -565 0
-494 -566 0
-495 -567 0
-496 -568 0
-493 -1089 0
-494 -1090 0
-495 -1091 0
-496 -1092 0
-493 -1253 0
-494 -1254 0
-495 -1255 0
-496 -1256 0
-493 -1349 0
-494 -1350 0
-495 -1351 0
-496 -1352 0
-493 -1373 0
-494 -1374 0
-495 -1375 0
-496 -1376 0
-497 -593 0
-498 -594 0
-499 -595 0
-500 -596 0
-497 -609 0
-498 -610 0
-499 -611 0
-500 -612 0
-497 -897 0
-498 -898 0
-499 -899 0
-500 -900 0
-497 -1085 0
-498 -1086 0
-499 -1087 0
-500 -1088 0
-497 -1257 0
-498 -1258 0
-499 -1259 0
-500 -1260 0
-497 -1353 0
-498 -1354 0
-499 -1355 0
-500 -1356 0
-497 -1377 0
-498 -1378 0
-499 -1379 0
-500 -1380 0
-501 -577 0
-502 -578 0
-503 -579 0
-504 -580 0
-501 -889 0
-502 -890 0
-503 -891 0
-504 -892 0
-501 -1049 0
-502 -1050 0
-503 -1051 0
-504 -1052 0
-501 -1097 0
-502 -1098 0
-503 -1099 0
-504 -1100 0
-501 -1353 0
-502 -1354 0
-503 -1355 0
-504 -1356 0
-505 -549 0
-506 -550 0
-507 -551 0
-508 -552 0
-505 -885 0
-506 -886 0
-507 -887 0
-508 -888 0
-505 -1053 0
-506 -1054 0
-507 -1055 0
-508 -1056 0
-505 -1093 0
-506 -1094 0
-507 -1095 0
-508 -1096 0
-505 -1357 0
-506 -1358 0
-507 -1359 0
-508 -1360 0
-509 -581 0
-510 -582 0
-511 -583 0
-512 -584 0
-509 -597 0
-510 -598 0
-511 -599 0
-512 -600 0
-509 -893 0
-510 -894 0
-511 -895 0
-512 -896 0
-509 -1057 0
-510 -1058 0
-511 -1059 0
-512 -1060 0
-509 -1261 0
-510 -1262 0
-511 -1263 0
-512 -1264 0
-509 -1357 0
-510 -1358 0
-511 -1359 0
-512 -1360 0
-509 -1381 0
-510 -1382 0
-511 -1383 0
-512 -1384 0
-513 -1157 0
-514 -1158 0
-515 -1159 0
-516 -1160 0
-513 -1169 0
-514 -1170 0
-515 -1171 0
-516 -1172 0
-513 -1225 0
-514 -1226 0
-515 -1227 0
-516 -1228 0
-517 -1181 0
-518 -1182 0
-519 -1183 0
-520 -1184 0
-517 -1193 0
-518 -1194 0
-519 -1195 0
-520 -1196 0
-517 -1229 0
-518 -1230 0
-519 -1231 0
-520 -1232 0
-521 -1205 0
-522 -1206 0
-523 -1207 0
-524 -1208 0
-521 -1217 0
-522 -1218 0
-523 -1219 0
-524 -1220 0
-521 -1233 0
-522 -1234 0
-523 -1235 0
-524 -1236 0
-521 -1237 0
-522 -1238 0
-523 -1239 0
-524 -1240 0
-525 -633 0
-526 -634 0
-527 -635 0
-528 -636 0
-525 -693 0
-526 -694 0
-527 -695 0
-528 -696 0
-525 -989 0
-526 -990 0
-527 -991 0
-528 -992 0
-525 -1029 0
-526 -1030 0
-527 -1031 0
-528 -1032 0
-525 -1361 0
-526 -1362 0
-527 -1363 0
-528 -1364 0
-529 -621 0
-530 -622 0
-531 -623 0
-532 -624 0
-529 -657 0
-530 -658 0
-531 -659 0
-532 -660 0
-529 -993 0
-530 -994 0
-531 -995 0
-532 -996 0
-529 -1001 0
-530 -1002 0
-531 -1003 0
-532 -1004 0
-529 -1365 0
-530 -1366 0
-531 -1367 0
-532 -1368 0
-533 -629 0
-534 -630 0
-535 -631 0
-536 -632 0
-533 -665 0
-534 -666 0
-535 -667 0
-536 -668 0
-533 -997 0
-534 -998 0
-535 -999 0
-536 -1000 0
-533 -1005 0
-534 -1006 0
-535 -1007 0
-536 -1008 0
-533 -1369 0
-534 -1370 0
-535 -1371 0
-536 -1372 0
-537 -653 0
-538 -654 0
-539 -655 0
-540 -656 0
-537 -689 0
-538 -690 0
-539 -691 0
-540 -692 0
-537 -1009 0
-538 -1010 0
-539 -1011 0
-540 -1012 0
-537 -1017 0
-538 -1018 0
-539 -1019 0
-540 -1020 0
-537 -1373 0
-538 -1374 0
-539 -1375 0
-540 -1376 0
-541 -661 0
-542 -662 0
-543 -663 0
-544 -664 0
-541 -697 0
-542 -698 0
-543 -699 0
-544 -700 0
-541 -1013 0
-542 -1014 0
-543 -1015 0
-544 -1016 0
-541 -1021 0
-542 -1022 0
-543 -1023 0
-544 -1024 0
-541 -1377 0
-542 -1378 0
-543 -1379 0
-544 -1380 0
-545 -625 0
-546 -626 0
-547 -627 0
-548 -628 0
-545 -685 0
-546 -686 0
-547 -687 0
-548 -688 0
-545 -985 0
-546 -986 0
-547 -987 0
-548 -988 0
-545 -1025 0
-546 -1026 0
-547 -1027 0
-548 -1028 0
-545 -1381 0
-546 -1382 0
-547 -1383 0
-548 -1384 0
-549 -717 0
-550 -718 0
-551 -719 0
-552 -720 0
-549 -749 0
-550 -750 0
-551 -751 0
-552 -752 0
-549 -917 0
-550 -918 0
-551 -919 0
-552 -920 0
-549 -993 0
-550 -994 0
-551 -995 0
-552 -996 0
-549 -1261 0
-550 -1262 0
-551 -1263 0
-552 -1264 0
-553 -721 0
-554 -722 0
-555 -723 0
-556 -724 0
-553 -753 0
-554 -754 0
-555 -755 0
-556 -756 0
-553 -969 0
-554 -970 0
-555 -971 0
-556 -972 0
-553 -997 0
-554 -998 0
-555 -999 0
-556 -1000 0
-553 -1361 0
-554 -1362 0
-555 -1363 0
-556 -1364 0
-557 -709 0
-558 -710 0
-559 -711 0
-560 -712 0
-557 -725 0
-558 -726 0
-559 -727 0
-560 -728 0
-557 -925 0
-558 -926 0
-559 -927 0
-560 -928 0
-557 -985 0
-558 -986 0
-559 -987 0
-560 -988 0
-557 -1365 0
-558 -1366 0
-559 -1367 0
-560 -1368 0
-557 -1385 0
-558 -1386 0
-559 -1387 0
-560 -1388 0
-561 -713 0
-562 -714 0
-563 -715 0
-564 -716 0
-561 -729 0
-562 -730 0
-563 -731 0
-564 -732 0
-561 -905 0
-562 -906 0
-563 -907 0
-564 -908 0
-561 -989 0
-562 -990 0
-563 -991 0
-564 -992 0
-561 -1249 0
-562 -1250 0
-563 -1251 0
-564 -1252 0
-565 -717 0
-566 -718 0
-567 -719 0
-568 -720 0
-565 -733 0
-566 -734 0
-567 -735 0
-568 -736 0
-565 -941 0
-566 -942 0
-567 -943 0
-568 -944 0
-565 -1009 0
-566 -1010 0
-567 -1011 0
-568 -1012 0
-565 -1245 0
-566 -1246 0
-567 -1247 0
-568 -1248 0
-569 -721 0
-570 -722 0
-571 -723 0
-572 -724 0
-569 -737 0
-570 -738 0
-571 -739 0
-572 -740 0
-569 -921 0
-570 -922 0
-571 -923 0
-572 -924 0
-569 -1013 0
-570 -1014 0
-571 -1015 0
-572 -1016 0
-569 -1369 0
-570 -1370 0
-571 -1371 0
-572 -1372 0
-569 -1389 0
-570 -1390 0
-571 -1391 0
-572 -1392 0
-573 -725 0
-574 -726 0
-575 -727 0
-576 -728 0
-573 -741 0
-574 -742 0
-575 -743 0
-576 -744 0
-573 -949 0
-574 -950 0
-575 -951 0
-576 -952 0
-573 -1001 0
-574 -1002 0
-575 -1003 0
-576 -1004 0
-573 -1373 0
-574 -1374 0
-575 -1375 0
-576 -1376 0
-577 -729 0
-578 -730 0
-579 -731 0
-580 -732 0
-577 -745 0
-578 -746 0
-579 -747 0
-580 -748 0
-577 -929 0
-578 -930 0
-579 -931 0
-580 -932 0
-577 -1005 0
-578 -1006 0
-579 -1007 0
-580 -1008 0
-577 -1257 0
-578 -1258 0
-579 -1259 0
-580 -1260 0
-581 -733 0
-582 -734 0
-583 -735 0
-584 -736 0
-581 -749 0
-582 -750 0
-583 -751 0
-584 -752 0
-581 -965 0
-582 -966 0
-583 -967 0
-584 -968 0
-581 -1025 0
-582 -1026 0
-583 -1027 0
-584 -1028 0
-581 -1253 0
-582 -1254 0
-583 -1255 0
-584 -1256 0
-585 -737 0
-586 -738 0
-587 -739 0
-588 -740 0
-585 -753 0
-586 -754 0
-587 -755 0
-588 -756 0
-585 -945 0
-586 -946 0
-587 -947 0
-588 -948 0
-585 -1029 0
-586 -1030 0
-587 -1031 0
-588 -1032 0
-585 -1377 0
-586 -1378 0
-587 -1379 0
-588 -1380 0
-585 -1393 0
-586 -1394 0
-587 -1395 0
-588 -1396 0
-589 -709 0
-590 -710 0
-591 -711 0
-592 -712 0
-589 -741 0
-590 -742 0
-591 -743 0
-592 -744 0
-589 -901 0
-590 -902 0
-591 -903 0
-592 -904 0
-589 -1017 0
-590 -1018 0
-591 -1019 0
-592 -1020 0
-589 -1381 0
-590 -1382 0
-591 -1383 0
-592 -1384 0
-589 -1397 0
-590 -1398 0
-591 -1399 0
-592 -1400 0
-593 -713 0
-594 -714 0
-595 -715 0
-596 -716 0
-593 -745 0
-594 -746 0
-595 -747 0
-596 -748 0
-593 -953 0
-594 -954 0
-595 -955 0
-596 -956 0
-593 -1021 0
-594 -1022 0
-595 -1023 0
-596 -1024 0
-593 -1241 0
-594 -1242 0
-595 -1243 0
-596 -1244 0
-597 -1053 0
-598 -1054 0
-599 -1055 0
-600 -1056 0
-597 -1113 0
-598 -1114 0
-599 -1115 0
-600 -1116 0
-601 -1041 0
-602 -1042 0
-603 -1043 0
-604 -1044 0
-601 -1109 0
-602 -1110 0
-603 -1111 0
-604 -1112 0
-605 -1037 0
-606 -1038 0
-607 -1039 0
-608 -1040 0
-605 -1129 0
-606 -1130 0
-607 -1131 0
-608 -1132 0
-609 -1049 0
-610 -1050 0
-611 -1051 0
-612 -1052 0
-609 -1125 0
-610 -1126 0
-611 -1127 0
-612 -1128 0
-613 -633 0
-614 -634 0
-615 -635 0
-616 -636 0
-613 -697 0
-614 -698 0
-615 -699 0
-616 -700 0
-613 -765 0
-614 -766 0
-615 -767 0
-616 -768 0
-613 -897 0
-614 -898 0
-615 -899 0
-616 -900 0
-613 -973 0
-614 -974 0
-615 -975 0
-616 -976 0
-613 -1097 0
-614 -1098 0
-615 -1099 0
-616 -1100 0
-613 -1161 0
-614 -1162 0
-615 -1163 0
-616 -1164 0
-613 -1217 0
-614 -1218 0
-615 -1219 0
-616 -1220 0
-613 -1273 0
-614 -1274 0
-615 -1275 0
-616 -1276 0
-613 -1333 0
-614 -1334 0
-615 -1335 0
-616 -1336 0
-613 -1337 0
-614 -1338 0
-615 -1339 0
-616 -1340 0
-613 -1445 0
-614 -1446 0
-615 -1447 0
-616 -1448 0
-617 -637 0
-618 -638 0
-619 -639 0
-620 -640 0
-617 -701 0
-618 -702 0
-619 -703 0
-620 -704 0
-617 -1101 0
-618 -1102 0
-619 -1103 0
-620 -1104 0
-617 -1165 0
-618 -1166 0
-619 -1167 0
-620 -1168 0
-617 -1221 0
-618 -1222 0
-619 -1223 0
-620 -1224 0
-617 -1265 0
-618 -1266 0
-619 -1267 0
-620 -1268 0
-617 -1277 0
-618 -1278 0
-619 -1279 0
-620 -1280 0
-617 -1413 0
-618 -1414 0
-619 -1415 0
-620 -1416 0
-621 -641 0
-622 -642 0
-623 -643 0
-624 -644 0
-621 -705 0
-622 -706 0
-623 -707 0
-624 -708 0
-621 -801 0
-622 -802 0
-623 -803 0
-624 -804 0
-621 -1065 0
-622 -1066 0
-623 -1067 0
-624 -1068 0
-621 -1153 0
-622 -1154 0
-623 -1155 0
-624 -1156 0
-621 -1269 0
-622 -1270 0
-623 -1271 0
-624 -1272 0
-621 -1281 0
-622 -1282 0
-623 -1283 0
-624 -1284 0
-621 -1385 0
-622 -1386 0
-623 -1387 0
-624 -1388 0
-621 -1401 0
-622 -1402 0
-623 -1403 0
-624 -1404 0
-621 -1413 0
-622 -1414 0
-623 -1415 0
-624 -1416 0
-621 -1449 0
-622 -1450 0
-623 -1451 0
-624 -1452 0
-625 -769 0
-626 -770 0
-627 -771 0
-628 -772 0
-625 -1057 0
-626 -1058 0
-627 -1059 0
-628 -1060 0
-625 -1169 0
-626 -1170 0
-627 -1171 0
-628 -1172 0
-625 -1341 0
-626 -1342 0
-627 -1343 0
-628 -1344 0
-625 -1417 0
-626 -1418 0
-627 -1419 0
-628 -1420 0
-629 -757 0
-630 -758 0
-631 -759 0
-632 -760 0
-629 -1069 0
-630 -1070 0
-631 -1071 0
-632 -1072 0
-629 -1157 0
-630 -1158 0
-631 -1159 0
-632 -1160 0
-629 -1337 0
-630 -1338 0
-631 -1339 0
-632 -1340 0
-633 -645 0
-634 -646 0
-635 -647 0
-636 -648 0
-633 -773 0
-634 -774 0
-635 -775 0
-636 -776 0
-633 -1061 0
-634 -1062 0
-635 -1063 0
-636 -1064 0
-633 -1173 0
-634 -1174 0
-635 -1175 0
-636 -1176 0
-633 -1273 0
-634 -1274 0
-635 -1275 0
-636 -1276 0
-633 -1285 0
-634 -1286 0
-635 -1287 0
-636 -1288 0
-633 -1401 0
-634 -1402 0
-635 -1403 0
-636 -1404 0
-633 -1417 0
-634 -1418 0
-635 -1419 0
-636 -1420 0
-633 -1421 0
-634 -1422 0
-635 -1423 0
-636 -1424 0
-633 -1453 0
-634 -1454 0
-635 -1455 0
-636 -1456 0
-637 -649 0
-638 -650 0
-639 -651 0
-640 -652 0
-637 -1073 0
-638 -1074 0
-639 -1075 0
-640 -1076 0
-637 -1161 0
-638 -1162 0
-639 -1163 0
-640 -1164 0
-637 -1177 0
-638 -1178 0
-639 -1179 0
-640 -1180 0
-637 -1277 0
-638 -1278 0
-639 -1279 0
-640 -1280 0
-637 -1289 0
-638 -1290 0
-639 -1291 0
-640 -1292 0
-637 -1385 0
-638 -1386 0
-639 -1387 0
-640 -1388 0
-637 -1421 0
-638 -1422 0
-639 -1423 0
-640 -1424 0
-641 -653 0
-642 -654 0
-643 -655 0
-644 -656 0
-641 -761 0
-642 -762 0
-643 -763 0
-644 -764 0
-641 -973 0
-642 -974 0
-643 -975 0
-644 -976 0
-641 -1077 0
-642 -1078 0
-643 -1079 0
-644 -1080 0
-641 -1165 0
-642 -1166 0
-643 -1167 0
-644 -1168 0
-641 -1181 0
-642 -1182 0
-643 -1183 0
-644 -1184 0
-641 -1281 0
-642 -1282 0
-643 -1283 0
-644 -1284 0
-641 -1293 0
-642 -1294 0
-643 -1295 0
-644 -1296 0
-641 -1341 0
-642 -1342 0
-643 -1343 0
-644 -1344 0
-641 -1457 0
-642 -1458 0
-643 -1459 0
-644 -1460 0
-645 -665 0
-646 -666 0
-647 -667 0
-648 -668 0
-645 -781 0
-646 -782 0
-647 -783 0
-648 -784 0
-645 -977 0
-646 -978 0
-647 -979 0
-648 -980 0
-645 -1065 0
-646 -1066 0
-647 -1067 0
-648 -1068 0
-645 -1169 0
-646 -1170 0
-647 -1171 0
-648 -1172 0
-645 -1185 0
-646 -1186 0
-647 -1187 0
-648 -1188 0
-645 -1285 0
-646 -1286 0
-647 -1287 0
-648 -1288 0
-645 -1297 0
-646 -1298 0
-647 -1299 0
-648 -1300 0
-645 -1345 0
-646 -1346 0
-647 -1347 0
-648 -1348 0
-645 -1461 0
-646 -1462 0
-647 -1463 0
-648 -1464 0
-649 -669 0
-650 -670 0
-651 -671 0
-652 -672 0
-649 -1069 0
-650 -1070 0
-651 -1071 0
-652 -1072 0
-649 -1173 0
-650 -1174 0
-651 -1175 0
-652 -1176 0
-649 -1189 0
-650 -1190 0
-651 -1191 0
-652 -1192 0
-649 -1289 0
-650 -1290 0
-651 -1291 0
-652 -1292 0
-649 -1301 0
-650 -1302 0
-651 -1303 0
-652 -1304 0
-649 -1389 0
-650 -1390 0
-651 -1391 0
-652 -1392 0
-649 -1425 0
-650 -1426 0
-651 -1427 0
-652 -1428 0
-653 -673 0
-654 -674 0
-655 -675 0
-656 -676 0
-653 -769 0
-654 -770 0
-655 -771 0
-656 -772 0
-653 -1081 0
-654 -1082 0
-655 -1083 0
-656 -1084 0
-653 -1177 0
-654 -1178 0
-655 -1179 0
-656 -1180 0
-653 -1293 0
-654 -1294 0
-655 -1295 0
-656 -1296 0
-653 -1305 0
-654 -1306 0
-655 -1307 0
-656 -1308 0
-653 -1405 0
-654 -1406 0
-655 -1407 0
-656 -1408 0
-653 -1425 0
-654 -1426 0
-655 -1427 0
-656 -1428 0
-653 -1429 0
-654 -1430 0
-655 -1431 0
-656 -1432 0
-653 -1465 0
-654 -1466 0
-655 -1467 0
-656 -1468 0
-657 -785 0
-658 -786 0
-659 -787 0
-660 -788 0
-657 -1073 0
-658 -1074 0
-659 -1075 0
-660 -1076 0
-657 -1193 0
-658 -1194 0
-659 -1195 0
-660 -1196 0
-657 -1349 0
-658 -1350 0
-659 -1351 0
-660 -1352 0
-661 -773 0
-662 -774 0
-663 -775 0
-664 -776 0
-661 -1085 0
-662 -1086 0
-663 -1087 0
-664 -1088 0
-661 -1181 0
-662 -1182 0
-663 -1183 0
-664 -1184 0
-661 -1345 0
-662 -1346 0
-663 -1347 0
-664 -1348 0
-661 -1429 0
-662 -1430 0
-663 -1431 0
-664 -1432 0
-665 -677 0
-666 -678 0
-667 -679 0
-668 -680 0
-665 -789 0
-666 -790 0
-667 -791 0
-668 -792 0
-665 -1077 0
-666 -1078 0
-667 -1079 0
-668 -1080 0
-665 -1197 0
-666 -1198 0
-667 -1199 0
-668 -1200 0
-665 -1297 0
-666 -1298 0
-667 -1299 0
-668 -1300 0
-665 -1309 0
-666 -1310 0
-667 -1311 0
-668 -1312 0
-665 -1389 0
-666 -1390 0
-667 -1391 0
-668 -1392 0
-665 -1405 0
-666 -1406 0
-667 -1407 0
-668 -1408 0
-665 -1433 0
-666 -1434 0
-667 -1435 0
-668 -1436 0
-665 -1469 0
-666 -1470 0
-667 -1471 0
-668 -1472 0
-669 -681 0
-670 -682 0
-671 -683 0
-672 -684 0
-669 -1089 0
-670 -1090 0
-671 -1091 0
-672 -1092 0
-669 -1185 0
-670 -1186 0
-671 -1187 0
-672 -1188 0
-669 -1201 0
-670 -1202 0
-671 -1203 0
-672 -1204 0
-669 -1301 0
-670 -1302 0
-671 -1303 0
-672 -1304 0
-669 -1313 0
-670 -1314 0
-671 -1315 0
-672 -1316 0
-669 -1433 0
-670 -1434 0
-671 -1435 0
-672 -1436 0
-673 -685 0
-674 -686 0
-675 -687 0
-676 -688 0
-673 -777 0
-674 -778 0
-675 -779 0
-676 -780 0
-673 -893 0
-674 -894 0
-675 -895 0
-676 -896 0
-673 -977 0
-674 -978 0
-675 -979 0
-676 -980 0
-673 -1093 0
-674 -1094 0
-675 -1095 0
-676 -1096 0
-673 -1189 0
-674 -1190 0
-675 -1191 0
-676 -1192 0
-673 -1205 0
-674 -1206 0
-675 -1207 0
-676 -1208 0
-673 -1305 0
-674 -1306 0
-675 -1307 0
-676 -1308 0
-673 -1317 0
-674 -1318 0
-675 -1319 0
-676 -1320 0
-673 -1349 0
-674 -1350 0
-675 -1351 0
-676 -1352 0
-673 -1473 0
-674 -1474 0
-675 -1475 0
-676 -1476 0
-677 -697 0
-678 -698 0
-679 -699 0
-680 -700 0
-677 -797 0
-678 -798 0
-679 -799 0
-680 -800 0
-677 -981 0
-678 -982 0
-679 -983 0
-680 -984 0
-677 -1081 0
-678 -1082 0
-679 -1083 0
-680 -1084 0
-677 -1193 0
-678 -1194 0
-679 -1195 0
-680 -1196 0
-677 -1209 0
-678 -1210 0
-679 -1211 0
-680 -1212 0
-677 -1309 0
-678 -1310 0
-679 -1311 0
-680 -1312 0
-677 -1321 0
-678 -1322 0
-679 -1323 0
-680 -1324 0
-677 -1353 0
-678 -1354 0
-679 -1355 0
-680 -1356 0
-677 -1477 0
-678 -1478 0
-679 -1479 0
-680 -1480 0
-681 -701 0
-682 -702 0
-683 -703 0
-684 -704 0
-681 -897 0
-682 -898 0
-683 -899 0
-684 -900 0
-681 -1085 0
-682 -1086 0
-683 -1087 0
-684 -1088 0
-681 -1197 0
-682 -1198 0
-683 -1199 0
-684 -1200 0
-681 -1213 0
-682 -1214 0
-683 -1215 0
-684 -1216 0
-681 -1313 0
-682 -1314 0
-683 -1315 0
-684 -1316 0
-681 -1325 0
-682 -1326 0
-683 -1327 0
-684 -1328 0
-681 -1393 0
-682 -1394 0
-683 -1395 0
-684 -1396 0
-681 -1437 0
-682 -1438 0
-683 -1439 0
-684 -1440 0
-685 -705 0
-686 -706 0
-687 -707 0
-688 -708 0
-685 -785 0
-686 -786 0
-687 -787 0
-688 -788 0
-685 -1097 0
-686 -1098 0
-687 -1099 0
-688 -1100 0
-685 -1201 0
-686 -1202 0
-687 -1203 0
-688 -1204 0
-685 -1317 0
-686 -1318 0
-687 -1319 0
-688 -1320 0
-685 -1329 0
-686 -1330 0
-687 -1331 0
-688 -1332 0
-685 -1397 0
-686 -1398 0
-687 -1399 0
-688 -1400 0
-685 -1409 0
-686 -1410 0
-687 -1411 0
-688 -1412 0
-685 -1437 0
-686 -1438 0
-687 -1439 0
-688 -1440 0
-685 -1481 0
-686 -1482 0
-687 -1483 0
-688 -1484 0
-689 -801 0
-690 -802 0
-691 -803 0
-692 -804 0
-689 -1089 0
-690 -1090 0
-691 -1091 0
-692 -1092 0
-689 -1217 0
-690 -1218 0
-691 -1219 0
-692 -1220 0
-689 -1357 0
-690 -1358 0
-691 -1359 0
-692 -1360 0
-693 -789 0
-694 -790 0
-695 -791 0
-696 -792 0
-693 -1101 0
-694 -1102 0
-695 -1103 0
-696 -1104 0
-693 -1205 0
-694 -1206 0
-695 -1207 0
-696 -1208 0
-693 -1353 0
-694 -1354 0
-695 -1355 0
-696 -1356 0
-697 -757 0
-698 -758 0
-699 -759 0
-700 -760 0
-697 -1093 0
-698 -1094 0
-699 -1095 0
-700 -1096 0
-697 -1221 0
-698 -1222 0
-699 -1223 0
-700 -1224 0
-697 -1321 0
-698 -1322 0
-699 -1323 0
-700 -1324 0
-697 -1333 0
-698 -1334 0
-699 -1335 0
-700 -1336 0
-697 -1393 0
-698 -1394 0
-699 -1395 0
-700 -1396 0
-697 -1409 0
-698 -1410 0
-699 -1411 0
-700 -1412 0
-697 -1441 0
-698 -1442 0
-699 -1443 0
-700 -1444 0
-697 -1485 0
-698 -1486 0
-699 -1487 0
-700 -1488 0
-701 -893 0
-702 -894 0
-703 -895 0
-704 -896 0
-701 -1057 0
-702 -1058 0
-703 -1059 0
-704 -1060 0
-701 -1153 0
-702 -1154 0
-703 -1155 0
-704 -1156 0
-701 -1209 0
-702 -1210 0
-703 -1211 0
-704 -1212 0
-701 -1265 0
-702 -1266 0
-703 -1267 0
-704 -1268 0
-701 -1325 0
-702 -1326 0
-703 -1327 0
-704 -1328 0
-701 -1397 0
-702 -1398 0
-703 -1399 0
-704 -1400 0
-701 -1441 0
-702 -1442 0
-703 -1443 0
-704 -1444 0
-705 -793 0
-706 -794 0
-707 -795 0
-708 -796 0
-705 -981 0
-706 -982 0
-707 -983 0
-708 -984 0
-705 -1061 0
-706 -1062 0
-707 -1063 0
-708 -1064 0
-705 -1157 0
-706 -1158 0
-707 -1159 0
-708 -1160 0
-705 -1213 0
-706 -1214 0
-707 -1215 0
-708 -1216 0
-705 -1269 0
-706 -1270 0
-707 -1271 0
-708 -1272 0
-705 -1329 0
-706 -1330 0
-707 -1331 0
-708 -1332 0
-705 -1357 0
-706 -1358 0
-707 -1359 0
-708 -1360 0
-705 -1489 0
-706 -1490 0
-707 -1491 0
-708 -1492 0
-709 -993 0
-710 -994 0
-711 -995 0
-712 -996 0
-709 -1149 0
-710 -1150 0
-711 -1151 0
-712 -1152 0
-709 -1413 0
-710 -1414 0
-711 -1415 0
-712 -1416 0
-713 -889 0
-714 -890 0
-715 -891 0
-716 -892 0
-713 -997 0
-714 -998 0
-715 -999 0
-716 -1000 0
-713 -1113 0
-714 -1114 0
-715 -1115 0
-716 -1116 0
-713 -1241 0
-714 -1242 0
-715 -1243 0
-716 -1244 0
-717 -985 0
-718 -986 0
-719 -987 0
-720 -988 0
-717 -1109 0
-718 -1110 0
-719 -1111 0
-720 -1112 0
-717 -1245 0
-718 -1246 0
-719 -1247 0
-720 -1248 0
-717 -1417 0
-718 -1418 0
-719 -1419 0
-720 -1420 0
-721 -989 0
-722 -990 0
-723 -991 0
-724 -992 0
-721 -1121 0
-722 -1122 0
-723 -1123 0
-724 -1124 0
-721 -1421 0
-722 -1422 0
-723 -1423 0
-724 -1424 0
-725 -1009 0
-726 -1010 0
-727 -1011 0
-728 -1012 0
-725 -1117 0
-726 -1118 0
-727 -1119 0
-728 -1120 0
-725 -1425 0
-726 -1426 0
-727 -1427 0
-728 -1428 0
-729 -1013 0
-730 -1014 0
-731 -1015 0
-732 -1016 0
-729 -1129 0
-730 -1130 0
-731 -1131 0
-732 -1132 0
-729 -1249 0
-730 -1250 0
-731 -1251 0
-732 -1252 0
-729 -1429 0
-730 -1430 0
-731 -1431 0
-732 -1432 0
-733 -885 0
-734 -886 0
-735 -887 0
-736 -888 0
-733 -1001 0
-734 -1002 0
-735 -1003 0
-736 -1004 0
-733 -1125 0
-734 -1126 0
-735 -1127 0
-736 -1128 0
-733 -1253 0
-734 -1254 0
-735 -1255 0
-736 -1256 0
-737 -1005 0
-738 -1006 0
-739 -1007 0
-740 -1008 0
-737 -1137 0
-738 -1138 0
-739 -1139 0
-740 -1140 0
-737 -1433 0
-738 -1434 0
-739 -1435 0
-740 -1436 0
-741 -1025 0
-742 -1026 0
-743 -1027 0
-744 -1028 0
-741 -1133 0
-742 -1134 0
-743 -1135 0
-744 -1136 0
-741 -1437 0
-742 -1438 0
-743 -1439 0
-744 -1440 0
-741 -1493 0
-742 -1494 0
-743 -1495 0
-744 -1496 0
-745 -881 0
-746 -882 0
-747 -883 0
-748 -884 0
-745 -1029 0
-746 -1030 0
-747 -1031 0
-748 -1032 0
-745 -1145 0
-746 -1146 0
-747 -1147 0
-748 -1148 0
-745 -1257 0
-746 -1258 0
-747 -1259 0
-748 -1260 0
-749 -877 0
-750 -878 0
-751 -879 0
-752 -880 0
-749 -1017 0
-750 -1018 0
-751 -1019 0
-752 -1020 0
-749 -1141 0
-750 -1142 0
-751 -1143 0
-752 -1144 0
-749 -1261 0
-750 -1262 0
-751 -1263 0
-752 -1264 0
-753 -1021 0
-754 -1022 0
-755 -1023 0
-756 -1024 0
-753 -1105 0
-754 -1106 0
-755 -1107 0
-756 -1108 0
-753 -1441 0
-754 -1442 0
-755 -1443 0
-756 -1444 0
-753 -1497 0
-754 -1498 0
-755 -1499 0
-756 -1500 0
-757 -817 0
-758 -818 0
-759 -819 0
-760 -820 0
-757 -869 0
-758 -870 0
-759 -871 0
-760 -872 0
-757 -989 0
-758 -990 0
-759 -991 0
-760 -992 0
-757 -1029 0
-758 -1030 0
-759 -1031 0
-760 -1032 0
-757 -1237 0
-758 -1238 0
-759 -1239 0
-760 -1240 0
-757 -1337 0
-758 -1338 0
-759 -1339 0
-760 -1340 0
-757 -1497 0
-758 -1498 0
-759 -1499 0
-760 -1500 0
-761 -805 0
-762 -806 0
-763 -807 0
-764 -808 0
-761 -825 0
-762 -826 0
-763 -827 0
-764 -828 0
-761 -1341 0
-762 -1342 0
-763 -1343 0
-764 -1344 0
-765 -809 0
-766 -810 0
-767 -811 0
-768 -812 0
-765 -829 0
-766 -830 0
-767 -831 0
-768 -832 0
-765 -1337 0
-766 -1338 0
-767 -1339 0
-768 -1340 0
-769 -817 0
-770 -818 0
-771 -819 0
-772 -820 0
-769 -837 0
-770 -838 0
-771 -839 0
-772 -840 0
-769 -993 0
-770 -994 0
-771 -995 0
-772 -996 0
-769 -1001 0
-770 -1002 0
-771 -1003 0
-772 -1004 0
-769 -1341 0
-770 -1342 0
-771 -1343 0
-772 -1344 0
-773 -821 0
-774 -822 0
-775 -823 0
-776 -824 0
-773 -841 0
-774 -842 0
-775 -843 0
-776 -844 0
-773 -997 0
-774 -998 0
-775 -999 0
-776 -1000 0
-773 -1005 0
-774 -1006 0
-775 -1007 0
-776 -1008 0
-773 -1345 0
-774 -1346 0
-775 -1347 0
-776 -1348 0
-777 -829 0
-778 -830 0
-779 -831 0
-780 -832 0
-777 -849 0
-778 -850 0
-779 -851 0
-780 -852 0
-777 -1349 0
-778 -1350 0
-779 -1351 0
-780 -1352 0
-781 -833 0
-782 -834 0
-783 -835 0
-784 -836 0
-781 -853 0
-782 -854 0
-783 -855 0
-784 -856 0
-781 -1345 0
-782 -1346 0
-783 -1347 0
-784 -1348 0
-785 -841 0
-786 -842 0
-787 -843 0
-788 -844 0
-785 -861 0
-786 -862 0
-787 -863 0
-788 -864 0
-785 -1009 0
-786 -1010 0
-787 -1011 0
-788 -1012 0
-785 -1017 0
-786 -1018 0
-787 -1019 0
-788 -1020 0
-785 -1233 0
-786 -1234 0
-787 -1235 0
-788 -1236 0
-785 -1349 0
-786 -1350 0
-787 -1351 0
-788 -1352 0
-785 -1493 0
-786 -1494 0
-787 -1495 0
-788 -1496 0
-789 -845 0
-790 -846 0
-791 -847 0
-792 -848 0
-789 -865 0
-790 -866 0
-791 -867 0
-792 -868 0
-789 -1013 0
-790 -1014 0
-791 -1015 0
-792 -1016 0
-789 -1021 0
-790 -1022 0
-791 -1023 0
-792 -1024 0
-789 -1229 0
-790 -1230 0
-791 -1231 0
-792 -1232 0
-789 -1353 0
-790 -1354 0
-791 -1355 0
-792 -1356 0
-793 -853 0
-794 -854 0
-795 -855 0
-796 -856 0
-793 -873 0
-794 -874 0
-795 -875 0
-796 -876 0
-793 -1357 0
-794 -1358 0
-795 -1359 0
-796 -1360 0
-797 -805 0
-798 -806 0
-799 -807 0
-800 -808 0
-797 -857 0
-798 -858 0
-799 -859 0
-800 -860 0
-797 -1353 0
-798 -1354 0
-799 -1355 0
-800 -1356 0
-801 -813 0
-802 -814 0
-803 -815 0
-804 -816 0
-801 -865 0
-802 -866 0
-803 -867 0
-804 -868 0
-801 -985 0
-802 -986 0
-803 -987 0
-804 -988 0
-801 -1025 0
-802 -1026 0
-803 -1027 0
-804 -1028 0
-801 -1225 0
-802 -1226 0
-803 -1227 0
-804 -1228 0
-801 -1357 0
-802 -1358 0
-803 -1359 0
-804 -1360 0
-805 -905 0
-806 -906 0
-807 -907 0
-808 -908 0
-805 -965 0
-806 -966 0
-807 -967 0
-808 -968 0
-805 -1109 0
-806 -1110 0
-807 -1111 0
-808 -1112 0
-805 -1145 0
-806 -1146 0
-807 -1147 0
-808 -1148 0
-809 -913 0
-810 -914 0
-811 -915 0
-812 -916 0
-809 -1333 0
-810 -1334 0
-811 -1335 0
-812 -1336 0
-809 -1413 0
-810 -1414 0
-811 -1415 0
-812 -1416 0
-813 -1281 0
-814 -1282 0
-815 -1283 0
-816 -1284 0
-813 -1417 0
-814 -1418 0
-815 -1419 0
-816 -1420 0
-817 -901 0
-818 -902 0
-819 -903 0
-820 -904 0
-817 -921 0
-818 -922 0
-819 -923 0
-820 -924 0
-817 -1105 0
-818 -1106 0
-819 -1107 0
-820 -1108 0
-817 -1117 0
-818 -1118 0
-819 -1119 0
-820 -1120 0
-817 -1413 0
-818 -1414 0
-819 -1415 0
-820 -1416 0
-817 -1421 0
-818 -1422 0
-819 -1423 0
-820 -1424 0
-821 -1273 0
-822 -1274 0
-823 -1275 0
-824 -1276 0
-825 -909 0
-826 -910 0
-827 -911 0
-828 -912 0
-825 -1293 0
-826 -1294 0
-827 -1295 0
-828 -1296 0
-825 -1421 0
-826 -1422 0
-827 -1423 0
-828 -1424 0
-829 -917 0
-830 -918 0
-831 -919 0
-832 -920 0
-829 -929 0
-830 -930 0
-831 -931 0
-832 -932 0
-829 -1113 0
-830 -1114 0
-831 -1115 0
-832 -1116 0
-829 -1125 0
-830 -1126 0
-831 -1127 0
-832 -1128 0
-833 -937 0
-834 -938 0
-835 -939 0
-836 -940 0
-833 -1285 0
-834 -1286 0
-835 -1287 0
-836 -1288 0
-833 -1425 0
-834 -1426 0
-835 -1427 0
-836 -1428 0
-837 -1305 0
-838 -1306 0
-839 -1307 0
-840 -1308 0
-841 -925 0
-842 -926 0
-843 -927 0
-844 -928 0
-841 -945 0
-842 -946 0
-843 -947 0
-844 -948 0
-841 -1121 0
-842 -1122 0
-843 -1123 0
-844 -1124 0
-841 -1133 0
-842 -1134 0
-843 -1135 0
-844 -1136 0
-841 -1425 0
-842 -1426 0
-843 -1427 0
-844 -1428 0
-841 -1433 0
-842 -1434 0
-843 -1435 0
-844 -1436 0
-845 -1297 0
-846 -1298 0
-847 -1299 0
-848 -1300 0
-845 -1429 0
-846 -1430 0
-847 -1431 0
-848 -1432 0
-849 -933 0
-850 -934 0
-851 -935 0
-852 -936 0
-849 -1317 0
-850 -1318 0
-851 -1319 0
-852 -1320 0
-849 -1433 0
-850 -1434 0
-851 -1435 0
-852 -1436 0
-853 -941 0
-854 -942 0
-855 -943 0
-856 -944 0
-853 -953 0
-854 -954 0
-855 -955 0
-856 -956 0
-853 -1129 0
-854 -1130 0
-855 -1131 0
-856 -1132 0
-853 -1141 0
-854 -1142 0
-855 -1143 0
-856 -1144 0
-857 -961 0
-858 -962 0
-859 -963 0
-860 -964 0
-857 -1309 0
-858 -1310 0
-859 -1311 0
-860 -1312 0
-857 -1437 0
-858 -1438 0
-859 -1439 0
-860 -1440 0
-861 -1329 0
-862 -1330 0
-863 -1331 0
-864 -1332 0
-865 -949 0
-866 -950 0
-867 -951 0
-868 -952 0
-865 -969 0
-866 -970 0
-867 -971 0
-868 -972 0
-865 -1137 0
-866 -1138 0
-867 -1139 0
-868 -1140 0
-865 -1149 0
-866 -1150 0
-867 -1151 0
-868 -1152 0
-865 -1437 0
-866 -1438 0
-867 -1439 0
-868 -1440 0
-865 -1441 0
-866 -1442 0
-867 -1443 0
-868 -1444 0
-869 -1321 0
-870 -1322 0
-871 -1323 0
-872 -1324 0
-873 -957 0
-874 -958 0
-875 -959 0
-876 -960 0
-873 -1269 0
-874 -1270 0
-875 -1271 0
-876 -1272 0
-873 -1441 0
-874 -1442 0
-875 -1443 0
-876 -1444 0
-877 -973 0
-878 -974 0
-879 -975 0
-880 -976 0
-877 -1217 0
-878 -1218 0
-879 -1219 0
-880 -1220 0
-881 -977 0
-882 -978 0
-883 -979 0
-884 -980 0
-881 -1205 0
-882 -1206 0
-883 -1207 0
-884 -1208 0
-885 -981 0
-886 -982 0
-887 -983 0
-888 -984 0
-885 -1193 0
-886 -1194 0
-887 -1195 0
-888 -1196 0
-889 -981 0
-890 -982 0
-891 -983 0
-892 -984 0
-889 -1157 0
-890 -1158 0
-891 -1159 0
-892 -1160 0
-893 -1045 0
-894 -1046 0
-895 -1047 0
-896 -1048 0
-893 -1145 0
-894 -1146 0
-895 -1147 0
-896 -1148 0
-893 -1397 0
-894 -1398 0
-895 -1399 0
-896 -1400 0
-897 -1033 0
-898 -1034 0
-899 -1035 0
-900 -1036 0
-897 -1141 0
-898 -1142 0
-899 -1143 0
-900 -1144 0
-897 -1393 0
-898 -1394 0
-899 -1395 0
-900 -1396 0
-901 -1097 0
-902 -1098 0
-903 -1099 0
-904 -1100 0
-901 -1161 0
-902 -1162 0
-903 -1163 0
-904 -1164 0
-901 -1381 0
-902 -1382 0
-903 -1383 0
-904 -1384 0
-901 -1413 0
-902 -1414 0
-903 -1415 0
-904 -1416 0
-901 -1489 0
-902 -1490 0
-903 -1491 0
-904 -1492 0
-905 -1033 0
-906 -1034 0
-907 -1035 0
-908 -1036 0
-905 -1065 0
-906 -1066 0
-907 -1067 0
-908 -1068 0
-905 -1153 0
-906 -1154 0
-907 -1155 0
-908 -1156 0
-905 -1453 0
-906 -1454 0
-907 -1455 0
-908 -1456 0
-909 -1057 0
-910 -1058 0
-911 -1059 0
-912 -1060 0
-909 -1169 0
-910 -1170 0
-911 -1171 0
-912 -1172 0
-909 -1421 0
-910 -1422 0
-911 -1423 0
-912 -1424 0
-913 -1069 0
-914 -1070 0
-915 -1071 0
-916 -1072 0
-913 -1157 0
-914 -1158 0
-915 -1159 0
-916 -1160 0
-913 -1413 0
-914 -1414 0
-915 -1415 0
-916 -1416 0
-917 -1037 0
-918 -1038 0
-919 -1039 0
-920 -1040 0
-917 -1061 0
-918 -1062 0
-919 -1063 0
-920 -1064 0
-917 -1173 0
-918 -1174 0
-919 -1175 0
-920 -1176 0
-917 -1449 0
-918 -1450 0
-919 -1451 0
-920 -1452 0
-921 -1077 0
-922 -1078 0
-923 -1079 0
-924 -1080 0
-921 -1165 0
-922 -1166 0
-923 -1167 0
-924 -1168 0
-921 -1369 0
-922 -1370 0
-923 -1371 0
-924 -1372 0
-921 -1421 0
-922 -1422 0
-923 -1423 0
-924 -1424 0
-921 -1461 0
-922 -1462 0
-923 -1463 0
-924 -1464 0
-925 -1065 0
-926 -1066 0
-927 -1067 0
-928 -1068 0
-925 -1185 0
-926 -1186 0
-927 -1187 0
-928 -1188 0
-925 -1365 0
-926 -1366 0
-927 -1367 0
-928 -1368 0
-925 -1425 0
-926 -1426 0
-927 -1427 0
-928 -1428 0
-925 -1457 0
-926 -1458 0
-927 -1459 0
-928 -1460 0
-929 -1041 0
-930 -1042 0
-931 -1043 0
-932 -1044 0
-929 -1081 0
-930 -1082 0
-931 -1083 0
-932 -1084 0
-929 -1177 0
-930 -1178 0
-931 -1179 0
-932 -1180 0
-929 -1469 0
-930 -1470 0
-931 -1471 0
-932 -1472 0
-933 -1073 0
-934 -1074 0
-935 -1075 0
-936 -1076 0
-933 -1193 0
-934 -1194 0
-935 -1195 0
-936 -1196 0
-933 -1433 0
-934 -1434 0
-935 -1435 0
-936 -1436 0
-937 -1085 0
-938 -1086 0
-939 -1087 0
-940 -1088 0
-937 -1181 0
-938 -1182 0
-939 -1183 0
-940 -1184 0
-937 -1425 0
-938 -1426 0
-939 -1427 0
-940 -1428 0
-941 -1045 0
-942 -1046 0
-943 -1047 0
-944 -1048 0
-941 -1077 0
-942 -1078 0
-943 -1079 0
-944 -1080 0
-941 -1197 0
-942 -1198 0
-943 -1199 0
-944 -1200 0
-941 -1465 0
-942 -1466 0
-943 -1467 0
-944 -1468 0
-945 -1093 0
-946 -1094 0
-947 -1095 0
-948 -1096 0
-945 -1189 0
-946 -1190 0
-947 -1191 0
-948 -1192 0
-945 -1377 0
-946 -1378 0
-947 -1379 0
-948 -1380 0
-945 -1433 0
-946 -1434 0
-947 -1435 0
-948 -1436 0
-945 -1477 0
-946 -1478 0
-947 -1479 0
-948 -1480 0
-949 -1081 0
-950 -1082 0
-951 -1083 0
-952 -1084 0
-949 -1209 0
-950 -1210 0
-951 -1211 0
-952 -1212 0
-949 -1373 0
-950 -1374 0
-951 -1375 0
-952 -1376 0
-949 -1437 0
-950 -1438 0
-951 -1439 0
-952 -1440 0
-949 -1473 0
-950 -1474 0
-951 -1475 0
-952 -1476 0
-953 -1049 0
-954 -1050 0
-955 -1051 0
-956 -1052 0
-953 -1097 0
-954 -1098 0
-955 -1099 0
-956 -1100 0
-953 -1201 0
-954 -1202 0
-955 -1203 0
-956 -1204 0
-953 -1485 0
-954 -1486 0
-955 -1487 0
-956 -1488 0
-957 -1089 0
-958 -1090 0
-959 -1091 0
-960 -1092 0
-957 -1217 0
-958 -1218 0
-959 -1219 0
-960 -1220 0
-957 -1441 0
-958 -1442 0
-959 -1443 0
-960 -1444 0
-961 -1101 0
-962 -1102 0
-963 -1103 0
-964 -1104 0
-961 -1205 0
-962 -1206 0
-963 -1207 0
-964 -1208 0
-961 -1437 0
-962 -1438 0
-963 -1439 0
-964 -1440 0
-965 -1053 0
-966 -1054 0
-967 -1055 0
-968 -1056 0
-965 -1093 0
-966 -1094 0
-967 -1095 0
-968 -1096 0
-965 -1221 0
-966 -1222 0
-967 -1223 0
-968 -1224 0
-965 -1481 0
-966 -1482 0
-967 -1483 0
-968 -1484 0
-969 -1061 0
-970 -1062 0
-971 -1063 0
-972 -1064 0
-969 -1213 0
-970 -1214 0
-971 -1215 0
-972 -1216 0
-969 -1361 0
-970 -1362 0
-971 -1363 0
-972 -1364 0
-969 -1441 0
-970 -1442 0
-971 -1443 0
-972 -1444 0
-969 -1445 0
-970 -1446 0
-971 -1447 0
-972 -1448 0
-973 -1909 0
-974 -1910 0
-975 -1911 0
-976 -1912 0
-977 -1917 0
-978 -1918 0
-979 -1919 0
-980 -1920 0
-981 -1925 0
-982 -1926 0
-983 -1927 0
-984 -1928 0
-985 -1053 0
-986 -1054 0
-987 -1055 0
-988 -1056 0
-985 -1385 0
-986 -1386 0
-987 -1387 0
-988 -1388 0
-985 -1417 0
-986 -1418 0
-987 -1419 0
-988 -1420 0
-989 -1361 0
-990 -1362 0
-991 -1363 0
-992 -1364 0
-989 -1421 0
-990 -1422 0
-991 -1423 0
-992 -1424 0
-993 -1225 0
-994 -1226 0
-995 -1227 0
-996 -1228 0
-993 -1365 0
-994 -1366 0
-995 -1367 0
-996 -1368 0
-993 -1413 0
-994 -1414 0
-995 -1415 0
-996 -1416 0
-997 -1041 0
-998 -1042 0
-999 -1043 0
-1000 -1044 0
-1001 -1037 0
-1002 -1038 0
-1003 -1039 0
-1004 -1040 0
-1005 -1229 0
-1006 -1230 0
-1007 -1231 0
-1008 -1232 0
-1005 -1369 0
-1006 -1370 0
-1007 -1371 0
-1008 -1372 0
-1005 -1433 0
-1006 -1434 0
-1007 -1435 0
-1008 -1436 0
-1009 -1373 0
-1010 -1374 0
-1011 -1375 0
-1012 -1376 0
-1009 -1425 0
-1010 -1426 0
-1011 -1427 0
-1012 -1428 0
-1013 -1049 0
-1014 -1050 0
-1015 -1051 0
-1016 -1052 0
-1013 -1389 0
-1014 -1390 0
-1015 -1391 0
-1016 -1392 0
-1013 -1429 0
-1014 -1430 0
-1015 -1431 0
-1016 -1432 0
-1017 -1045 0
-1018 -1046 0
-1019 -1047 0
-1020 -1048 0
-1017 -1397 0
-1018 -1398 0
-1019 -1399 0
-1020 -1400 0
-1017 -1493 0
-1018 -1494 0
-1019 -1495 0
-1020 -1496 0
-1021 -1237 0
-1022 -1238 0
-1023 -1239 0
-1024 -1240 0
-1021 -1377 0
-1022 -1378 0
-1023 -1379 0
-1024 -1380 0
-1021 -1441 0
-1022 -1442 0
-1023 -1443 0
-1024 -1444 0
-1025 -1233 0
-1026 -1234 0
-1027 -1235 0
-1028 -1236 0
-1025 -1381 0
-1026 -1382 0
-1027 -1383 0
-1028 -1384 0
-1025 -1437 0
-1026 -1438 0
-1027 -1439 0
-1028 -1440 0
-1029 -1033 0
-1030 -1034 0
-1031 -1035 0
-1032 -1036 0
-1029 -1393 0
-1030 -1394 0
-1031 -1395 0
-1032 -1396 0
-1029 -1497 0
-1030 -1498 0
-1031 -1499 0
-1032 -1500 0
-1033 -1337 0
-1034 -1338 0
-1035 -1339 0
-1036 -1340 0
-1037 -1341 0
-1038 -1342 0
-1039 -1343 0
-1040 -1344 0
-1041 -1345 0
-1042 -1346 0
-1043 -1347 0
-1044 -1348 0
-1045 -1349 0
-1046 -1350 0
-1047 -1351 0
-1048 -1352 0
-1049 -1353 0
-1050 -1354 0
-1051 -1355 0
-1052 -1356 0
-1053 -1357 0
-1054 -1358 0
-1055 -1359 0
-1056 -1360 0
-1057 -1161 0
-1058 -1162 0
-1059 -1163 0
-1060 -1164 0
-1057 -1217 0
-1058 -1218 0
-1059 -1219 0
-1060 -1220 0
-1057 -1381 0
-1058 -1382 0
-1059 -1383 0
-1060 -1384 0
-1061 -1165 0
-1062 -1166 0
-1063 -1167 0
-1064 -1168 0
-1061 -1221 0
-1062 -1222 0
-1063 -1223 0
-1064 -1224 0
-1061 -1261 0
-1062 -1262 0
-1063 -1263 0
-1064 -1264 0
-1061 -1401 0
-1062 -1402 0
-1063 -1403 0
-1064 -1404 0
-1065 -1161 0
-1066 -1162 0
-1067 -1163 0
-1068 -1164 0
-1065 -1177 0
-1066 -1178 0
-1067 -1179 0
-1068 -1180 0
-1065 -1249 0
-1066 -1250 0
-1067 -1251 0
-1068 -1252 0
-1065 -1401 0
-1066 -1402 0
-1067 -1403 0
-1068 -1404 0
-1069 -1165 0
-1070 -1166 0
-1071 -1167 0
-1072 -1168 0
-1069 -1181 0
-1070 -1182 0
-1071 -1183 0
-1072 -1184 0
-1069 -1369 0
-1070 -1370 0
-1071 -1371 0
-1072 -1372 0
-1073 -1169 0
-1074 -1170 0
-1075 -1171 0
-1076 -1172 0
-1073 -1185 0
-1074 -1186 0
-1075 -1187 0
-1076 -1188 0
-1073 -1365 0
-1074 -1366 0
-1075 -1367 0
-1076 -1368 0
-1077 -1173 0
-1078 -1174 0
-1079 -1175 0
-1080 -1176 0
-1077 -1189 0
-1078 -1190 0
-1079 -1191 0
-1080 -1192 0
-1077 -1245 0
-1078 -1246 0
-1079 -1247 0
-1080 -1248 0
-1077 -1405 0
-1078 -1406 0
-1079 -1407 0
-1080 -1408 0
-1081 -1185 0
-1082 -1186 0
-1083 -1187 0
-1084 -1188 0
-1081 -1201 0
-1082 -1202 0
-1083 -1203 0
-1084 -1204 0
-1081 -1257 0
-1082 -1258 0
-1083 -1259 0
-1084 -1260 0
-1081 -1405 0
-1082 -1406 0
-1083 -1407 0
-1084 -1408 0
-1085 -1189 0
-1086 -1190 0
-1087 -1191 0
-1088 -1192 0
-1085 -1205 0
-1086 -1206 0
-1087 -1207 0
-1088 -1208 0
-1085 -1377 0
-1086 -1378 0
-1087 -1379 0
-1088 -1380 0
-1089 -1193 0
-1090 -1194 0
-1091 -1195 0
-1092 -1196 0
-1089 -1209 0
-1090 -1210 0
-1091 -1211 0
-1092 -1212 0
-1089 -1373 0
-1090 -1374 0
-1091 -1375 0
-1092 -1376 0
-1093 -1197 0
-1094 -1198 0
-1095 -1199 0
-1096 -1200 0
-1093 -1213 0
-1094 -1214 0
-1095 -1215 0
-1096 -1216 0
-1093 -1253 0
-1094 -1254 0
-1095 -1255 0
-1096 -1256 0
-1093 -1409 0
-1094 -1410 0
-1095 -1411 0
-1096 -1412 0
-1097 -1153 0
-1098 -1154 0
-1099 -1155 0
-1100 -1156 0
-1097 -1209 0
-1098 -1210 0
-1099 -1211 0
-1100 -1212 0
-1097 -1241 0
-1098 -1242 0
-1099 -1243 0
-1100 -1244 0
-1097 -1409 0
-1098 -1410 0
-1099 -1411 0
-1100 -1412 0
-1101 -1157 0
-1102 -1158 0
-1103 -1159 0
-1104 -1160 0
-1101 -1213 0
-1102 -1214 0
-1103 -1215 0
-1104 -1216 0
-1101 -1361 0
-1102 -1362 0
-1103 -1363 0
-1104 -1364 0
-1105 -1149 0
-1106 -1150 0
-1107 -1151 0
-1108 -1152 0
-1105 -1497 0
-1106 -1498 0
-1107 -1499 0
-1108 -1500 0
-1109 -1113 0
-1110 -1114 0
-1111 -1115 0
-1112 -1116 0
-1109 -1241 0
-1110 -1242 0
-1111 -1243 0
-1112 -1244 0
-1113 -1245 0
-1114 -1246 0
-1115 -1247 0
-1116 -1248 0
-1117 -1121 0
-1118 -1122 0
-1119 -1123 0
-1120 -1124 0
-1117 -1385 0
-1118 -1386 0
-1119 -1387 0
-1120 -1388 0
-1121 -1389 0
-1122 -1390 0
-1123 -1391 0
-1124 -1392 0
-1125 -1129 0
-1126 -1130 0
-1127 -1131 0
-1128 -1132 0
-1125 -1249 0
-1126 -1250 0
-1127 -1251 0
-1128 -1252 0
-1129 -1253 0
-1130 -1254 0
-1131 -1255 0
-1132 -1256 0
-1133 -1137 0
-1134 -1138 0
-1135 -1139 0
-1136 -1140 0
-1133 -1493 0
-1134 -1494 0
-1135 -1495 0
-1136 -1496 0
-1137 -1393 0
-1138 -1394 0
-1139 -1395 0
-1140 -1396 0
-1141 -1145 0
-1142 -1146 0
-1143 -1147 0
-1144 -1148 0
-1141 -1257 0
-1142 -1258 0
-1143 -1259 0
-1144 -1260 0
-1145 -1261 0
-1146 -1262 0
-1147 -1263 0
-1148 -1264 0
-1149 -1397 0
-1150 -1398 0
-1151 -1399 0
-1152 -1400 0
-1153 -1273 0
-1154 -1274 0
-1155 -1275 0
-1156 -1276 0
-1153 -1413 0
-1154 -1414 0
-1155 -1415 0
-1156 -1416 0
-1157 -1277 0
-1158 -1278 0
-1159 -1279 0
-1160 -1280 0
-1161 -1269 0
-1162 -1270 0
-1163 -1271 0
-1164 -1272 0
-1161 -1421 0
-1162 -1422 0
-1163 -1423 0
-1164 -1424 0
-1165 -1285 0
-1166 -1286 0
-1167 -1287 0
-1168 -1288 0
-1165 -1413 0
-1166 -1414 0
-1167 -1415 0
-1168 -1416 0
-1169 -1277 0
-1170 -1278 0
-1171 -1279 0
-1172 -1280 0
-1169 -1417 0
-1170 -1418 0
-1171 -1419 0
-1172 -1420 0
-1173 -1281 0
-1174 -1282 0
-1175 -1283 0
-1176 -1284 0
-1173 -1421 0
-1174 -1422 0
-1175 -1423 0
-1176 -1424 0
-1177 -1297 0
-1178 -1298 0
-1179 -1299 0
-1180 -1300 0
-1177 -1425 0
-1178 -1426 0
-1179 -1427 0
-1180 -1428 0
-1181 -1301 0
-1182 -1302 0
-1183 -1303 0
-1184 -1304 0
-1181 -1429 0
-1182 -1430 0
-1183 -1431 0
-1184 -1432 0
-1185 -1293 0
-1186 -1294 0
-1187 -1295 0
-1188 -1296 0
-1185 -1433 0
-1186 -1434 0
-1187 -1435 0
-1188 -1436 0
-1189 -1309 0
-1190 -1310 0
-1191 -1311 0
-1192 -1312 0
-1189 -1425 0
-1190 -1426 0
-1191 -1427 0
-1192 -1428 0
-1193 -1301 0
-1194 -1302 0
-1195 -1303 0
-1196 -1304 0
-1197 -1305 0
-1198 -1306 0
-1199 -1307 0
-1200 -1308 0
-1197 -1433 0
-1198 -1434 0
-1199 -1435 0
-1200 -1436 0
-1201 -1321 0
-1202 -1322 0
-1203 -1323 0
-1204 -1324 0
-1201 -1437 0
-1202 -1438 0
-1203 -1439 0
-1204 -1440 0
-1205 -1325 0
-1206 -1326 0
-1207 -1327 0
-1208 -1328 0
-1209 -1317 0
-1210 -1318 0
-1211 -1319 0
-1212 -1320 0
-1209 -1441 0
-1210 -1442 0
-1211 -1443 0
-1212 -1444 0
-1213 -1333 0
-1214 -1334 0
-1215 -1335 0
-1216 -1336 0
-1213 -1437 0
-1214 -1438 0
-1215 -1439 0
-1216 -1440 0
-1217 -1325 0
-1218 -1326 0
-1219 -1327 0
-1220 -1328 0
-1221 -1329 0
-1222 -1330 0
-1223 -1331 0
-1224 -1332 0
-1221 -1441 0
-1222 -1442 0
-1223 -1443 0
-1224 -1444 0
-1225 -1261 0
-1226 -1262 0
-1227 -1263 0
-1228 -1264 0
-1225 -1401 0
-1226 -1402 0
-1227 -1403 0
-1228 -1404 0
-1229 -1257 0
-1230 -1258 0
-1231 -1259 0
-1232 -1260 0
-1229 -1405 0
-1230 -1406 0
-1231 -1407 0
-1232 -1408 0
-1233 -1253 0
-1234 -1254 0
-1235 -1255 0
-1236 -1256 0
-1233 -1409 0
-1234 -1410 0
-1235 -1411 0
-1236 -1412 0
-1237 -1241 0
-1238 -1242 0
-1239 -1243 0
-1240 -1244 0
-1237 -1409 0
-1238 -1410 0
-1239 -1411 0
-1240 -1412 0
-1241 -1337 0
-1242 -1338 0
-1243 -1339 0
-1244 -1340 0
-1245 -1341 0
-1246 -1342 0
-1247 -1343 0
-1248 -1344 0
-1249 -1345 0
-1250 -1346 0
-1251 -1347 0
-1252 -1348 0
-1253 -1349 0
-1254 -1350 0
-1255 -1351 0
-1256 -1352 0
-1257 -1353 0
-1258 -1354 0
-1259 -1355 0
-1260 -1356 0
-1261 -1357 0
-1262 -1358 0
-1263 -1359 0
-1264 -1360 0
-1269 -1333 0
-1270 -1334 0
-1271 -1335 0
-1272 -1336 0
-1269 -1449 0
-1270 -1450 0
-1271 -1451 0
-1272 -1452 0
-1269 -1489 0
-1270 -1490 0
-1271 -1491 0
-1272 -1492 0
-1273 -1281 0
-1274 -1282 0
-1275 -1283 0
-1276 -1284 0
-1273 -1445 0
-1274 -1446 0
-1275 -1447 0
-1276 -1448 0
-1273 -1453 0
-1274 -1454 0
-1275 -1455 0
-1276 -1456 0
-1281 -1449 0
-1282 -1450 0
-1283 -1451 0
-1284 -1452 0
-1281 -1457 0
-1282 -1458 0
-1283 -1459 0
-1284 -1460 0
-1285 -1293 0
-1286 -1294 0
-1287 -1295 0
-1288 -1296 0
-1285 -1453 0
-1286 -1454 0
-1287 -1455 0
-1288 -1456 0
-1285 -1461 0
-1286 -1462 0
-1287 -1463 0
-1288 -1464 0
-1293 -1457 0
-1294 -1458 0
-1295 -1459 0
-1296 -1460 0
-1293 -1465 0
-1294 -1466 0
-1295 -1467 0
-1296 -1468 0
-1297 -1305 0
-1298 -1306 0
-1299 -1307 0
-1300 -1308 0
-1297 -1461 0
-1298 -1462 0
-1299 -1463 0
-1300 -1464 0
-1297 -1469 0
-1298 -1470 0
-1299 -1471 0
-1300 -1472 0
-1305 -1465 0
-1306 -1466 0
-1307 -1467 0
-1308 -1468 0
-1305 -1473 0
-1306 -1474 0
-1307 -1475 0
-1308 -1476 0
-1309 -1317 0
-1310 -1318 0
-1311 -1319 0
-1312 -1320 0
-1309 -1469 0
-1310 -1470 0
-1311 -1471 0
-1312 -1472 0
-1309 -1477 0
-1310 -1478 0
-1311 -1479 0
-1312 -1480 0
-1317 -1473 0
-1318 -1474 0
-1319 -1475 0
-1320 -1476 0
-1317 -1481 0
-1318 -1482 0
-1319 -1483 0
-1320 -1484 0
-1321 -1329 0
-1322 -1330 0
-1323 -1331 0
-1324 -1332 0
-1321 -1477 0
-1322 -1478 0
-1323 -1479 0
-1324 -1480 0
-1321 -1485 0
-1322 -1486 0
-1323 -1487 0
-1324 -1488 0
-1329 -1481 0
-1330 -1482 0
-1331 -1483 0
-1332 -1484 0
-1329 -1489 0
-1330 -1490 0
-1331 -1491 0
-1332 -1492 0
-1333 -1445 0
-1334 -1446 0
-1335 -1447 0
-1336 -1448 0
-1333 -1485 0
-1334 -1486 0
-1335 -1487 0
-1336 -1488 0
-1361 -1497 0
-1362 -1498 0
-1363 -1499 0
-1364 -1500 0
-1365 -1385 0
-1366 -1386 0
-1367 -1387 0
-1368 -1388 0
-1369 -1389 0
-1370 -1390 0
-1371 -1391 0
-1372 -1392 0
-1373 -1493 0
-1374 -1494 0
-1375 -1495 0
-1376 -1496 0
-1377 -1393 0
-1378 -1394 0
-1379 -1395 0
-1380 -1396 0
-1381 -1397 0
-1382 -1398 0
-1383 -1399 0
-1384 -1400 0
-1385 -1413 0
-1386 -1414 0
-1387 -1415 0
-1388 -1416 0
-1389 -1433 0
-1390 -1434 0
-1391 -1435 0
-1392 -1436 0
-1393 -1441 0
-1394 -1442 0
-1395 -1443 0
-1396 -1444 0
-1397 -1437 0
-1398 -1438 0
-1399 -1439 0
-1400 -1440 0
-1401 -1725 0
-1402 -1726 0
-1403 -1727 0
-1404 -1728 0
-1405 -1733 0
-1406 -1734 0
-1407 -1735 0
-1408 -1736 0
-1409 -1741 0
-1410 -1742 0
-1411 -1743 0
-1412 -1744 0
-1437 -1493 0
-1438 -1494 0
-1439 -1495 0
-1440 -1496 0
-1441 -1497 0
-1442 -1498 0
-1443 -1499 0
-1444 -1500 0
-1445 -1929 0
-1446 -1930 0
-1447 -1931 0
-1448 -1932 0
-1449 -1933 0
-1450 -1934 0
-1451 -1935 0
-1452 -1936 0
-1453 -1937 0
-1454 -1938 0
-1455 -1939 0
-1456 -1940 0
-1457 -1941 0
-1458 -1942 0
-1459 -1943 0
-1460 -1944 0
-1461 -1945 0
-1462 -1946 0
-1463 -1947 0
-1464 -1948 0
-1465 -1949 0
-1466 -1950 0
-1467 -1951 0
-1468 -1952 0
-1469 -1953 0
-1470 -1954 0
-1471 -1955 0
-1472 -1956 0
-1473 -1957 0
-1474 -1958 0
-1475 -1959 0
-1476 -1960 0
-1477 -1961 0
-1478 -1962 0
-1479 -1963 0
-1480 -1964 0
-1481 -1965 0
-1482 -1966 0
-1483 -1967 0
-1484 -1968 0
-1485 -1969 0
-1486 -1970 0
-1487 -1971 0
-1488 -1972 0
-1489 -1973 0
-1490 -1974 0
-1491 -1975 0
-1492 -1976 0
-1501 -1561 0
-1502 -1562 0
-1503 -1563 0
-1504 -1564 0
-1501 -1589 0
-1502 -1590 0
-1503 -1591 0
-1504 -1592 0
-1501 -1625 0
-1502 -1626 0
-1503 -1627 0
-1504 -1628 0
-1501 -1645 0
-1502 -1646 0
-1503 -1647 0
-1504 -1648 0
-1501 -1693 0
-1502 -1694 0
-1503 -1695 0
-1504 -1696 0
-1505 -1569 0
-1506 -1570 0
-1507 -1571 0
-1508 -1572 0
-1505 -1577 0
-1506 -1578 0
-1507 -1579 0
-1508 -1580 0
-1505 -1593 0
-1506 -1594 0
-1507 -1595 0
-1508 -1596 0
-1505 -1649 0
-1506 -1650 0
-1507 -1651 0
-1508 -1652 0
-1505 -1709 0
-1506 -1710 0
-1507 -1711 0
-1508 -1712 0
-1509 -1573 0
-1510 -1574 0
-1511 -1575 0
-1512 -1576 0
-1509 -1581 0
-1510 -1582 0
-1511 -1583 0
-1512 -1584 0
-1509 -1621 0
-1510 -1622 0
-1511 -1623 0
-1512 -1624 0
-1509 -1641 0
-1510 -1642 0
-1511 -1643 0
-1512 -1644 0
-1509 -1669 0
-1510 -1670 0
-1511 -1671 0
-1512 -1672 0
-1509 -1713 0
-1510 -1714 0
-1511 -1715 0
-1512 -1716 0
-1513 -1549 0
-1514 -1550 0
-1515 -1551 0
-1516 -1552 0
-1513 -1553 0
-1514 -1554 0
-1515 -1555 0
-1516 -1556 0
-1513 -1577 0
-1514 -1578 0
-1515 -1579 0
-1516 -1580 0
-1513 -1605 0
-1514 -1606 0
-1515 -1607 0
-1516 -1608 0
-1513 -1633 0
-1514 -1634 0
-1515 -1635 0
-1516 -1636 0
-1513 -1657 0
-1514 -1658 0
-1515 -1659 0
-1516 -1660 0
-1513 -1681 0
-1514 -1682 0
-1515 -1683 0
-1516 -1684 0
-1513 -1717 0
-1514 -1718 0
-1515 -1719 0
-1516 -1720 0
-1513 -1721 0
-1514 -1722 0
-1515 -1723 0
-1516 -1724 0
-1513 -1725 0
-1514 -1726 0
-1515 -1727 0
-1516 -1728 0
-1513 -1745 0
-1514 -1746 0
-1515 -1747 0
-1516 -1748 0
-1513 -1749 0
-1514 -1750 0
-1515 -1751 0
-1516 -1752 0
-1513 -1793 0
-1514 -1794 0
-1515 -1795 0
-1516 -1796 0
-1517 -1553 0
-1518 -1554 0
-1519 -1555 0
-1520 -1556 0
-1517 -1557 0
-1518 -1558 0
-1519 -1559 0
-1520 -1560 0
-1517 -1585 0
-1518 -1586 0
-1519 -1587 0
-1520 -1588 0
-1517 -1593 0
-1518 -1594 0
-1519 -1595 0
-1520 -1596 0
-1517 -1613 0
-1518 -1614 0
-1519 -1615 0
-1520 -1616 0
-1517 -1677 0
-1518 -1678 0
-1519 -1679 0
-1520 -1680 0
-1517 -1689 0
-1518 -1690 0
-1519 -1691 0
-1520 -1692 0
-1517 -1725 0
-1518 -1726 0
-1519 -1727 0
-1520 -1728 0
-1517 -1729 0
-1518 -1730 0
-1519 -1731 0
-1520 -1732 0
-1517 -1753 0
-1518 -1754 0
-1519 -1755 0
-1520 -1756 0
-1517 -1757 0
-1518 -1758 0
-1519 -1759 0
-1520 -1760 0
-1517 -1797 0
-1518 -1798 0
-1519 -1799 0
-1520 -1800 0
-1521 -1537 0
-1522 -1538 0
-1523 -1539 0
-1524 -1540 0
-1521 -1557 0
-1522 -1558 0
-1523 -1559 0
-1524 -1560 0
-1521 -1565 0
-1522 -1566 0
-1523 -1567 0
-1524 -1568 0
-1521 -1601 0
-1522 -1602 0
-1523 -1603 0
-1524 -1604 0
-1521 -1621 0
-1522 -1622 0
-1523 -1623 0
-1524 -1624 0
-1521 -1661 0
-1522 -1662 0
-1523 -1663 0
-1524 -1664 0
-1521 -1685 0
-1522 -1686 0
-1523 -1687 0
-1524 -1688 0
-1521 -1697 0
-1522 -1698 0
-1523 -1699 0
-1524 -1700 0
-1521 -1729 0
-1522 -1730 0
-1523 -1731 0
-1524 -1732 0
-1521 -1733 0
-1522 -1734 0
-1523 -1735 0
-1524 -1736 0
-1521 -1761 0
-1522 -1762 0
-1523 -1763 0
-1524 -1764 0
-1521 -1765 0
-1522 -1766 0
-1523 -1767 0
-1524 -1768 0
-1521 -1801 0
-1522 -1802 0
-1523 -1803 0
-1524 -1804 0
-1525 -1537 0
-1526 -1538 0
-1527 -1539 0
-1528 -1540 0
-1525 -1541 0
-1526 -1542 0
-1527 -1543 0
-1528 -1544 0
-1525 -1573 0
-1526 -1574 0
-1527 -1575 0
-1528 -1576 0
-1525 -1589 0
-1526 -1590 0
-1527 -1591 0
-1528 -1592 0
-1525 -1609 0
-1526 -1610 0
-1527 -1611 0
-1528 -1612 0
-1525 -1629 0
-1526 -1630 0
-1527 -1631 0
-1528 -1632 0
-1525 -1665 0
-1526 -1666 0
-1527 -1667 0
-1528 -1668 0
-1525 -1669 0
-1526 -1670 0
-1527 -1671 0
-1528 -1672 0
-1525 -1693 0
-1526 -1694 0
-1527 -1695 0
-1528 -1696 0
-1525 -1705 0
-1526 -1706 0
-1527 -1707 0
-1528 -1708 0
-1525 -1733 0
-1526 -1734 0
-1527 -1735 0
-1528 -1736 0
-1525 -1737 0
-1526 -1738 0
-1527 -1739 0
-1528 -1740 0
-1525 -1769 0
-1526 -1770 0
-1527 -1771 0
-1528 -1772 0
-1525 -1773 0
-1526 -1774 0
-1527 -1775 0
-1528 -1776 0
-1525 -1805 0
-1526 -1806 0
-1527 -1807 0
-1528 -1808 0
-1529 -1541 0
-1530 -1542 0
-1531 -1543 0
-1532 -1544 0
-1529 -1545 0
-1530 -1546 0
-1531 -1547 0
-1532 -1548 0
-1529 -1561 0
-1530 -1562 0
-1531 -1563 0
-1532 -1564 0
-1529 -1581 0
-1530 -1582 0
-1531 -1583 0
-1532 -1584 0
-1529 -1617 0
-1530 -1618 0
-1531 -1619 0
-1532 -1620 0
-1529 -1637 0
-1530 -1638 0
-1531 -1639 0
-1532 -1640 0
-1529 -1701 0
-1530 -1702 0
-1531 -1703 0
-1532 -1704 0
-1529 -1713 0
-1530 -1714 0
-1531 -1715 0
-1532 -1716 0
-1529 -1737 0
-1530 -1738 0
-1531 -1739 0
-1532 -1740 0
-1529 -1741 0
-1530 -1742 0
-1531 -1743 0
-1532 -1744 0
-1529 -1777 0
-1530 -1778 0
-1531 -1779 0
-1532 -1780 0
-1529 -1781 0
-1530 -1782 0
-1531 -1783 0
-1532 -1784 0
-1529 -1809 0
-1530 -1810 0
-1531 -1811 0
-1532 -1812 0
-1533 -1545 0
-1534 -1546 0
-1535 -1547 0
-1536 -1548 0
-1533 -1549 0
-1534 -1550 0
-1535 -1551 0
-1536 -1552 0
-1533 -1569 0
-1534 -1570 0
-1535 -1571 0
-1536 -1572 0
-1533 -1597 0
-1534 -1598 0
-1535 -1599 0
-1536 -1600 0
-1533 -1625 0
-1534 -1626 0
-1535 -1627 0
-1536 -1628 0
-1533 -1653 0
-1534 -1654 0
-1535 -1655 0
-1536 -1656 0
-1533 -1673 0
-1534 -1674 0
-1535 -1675 0
-1536 -1676 0
-1533 -1709 0
-1534 -1710 0
-1535 -1711 0
-1536 -1712 0
-1533 -1721 0
-1534 -1722 0
-1535 -1723 0
-1536 -1724 0
-1533 -1741 0
-1534 -1742 0
-1535 -1743 0
-1536 -1744 0
-1533 -1785 0
-1534 -1786 0
-1535 -1787 0
-1536 -1788 0
-1533 -1789 0
-1534 -1790 0
-1535 -1791 0
-1536 -1792 0
-1533 -1813 0
-1534 -1814 0
-1535 -1815 0
-1536 -1816 0
-1537 -1545 0
-1538 -1546 0
-1539 -1547 0
-1540 -1548 0
-1537 -1553 0
-1538 -1554 0
-1539 -1555 0
-1540 -1556 0
-1537 -1573 0
-1538 -1574 0
-1539 -1575 0
-1540 -1576 0
-1537 -1601 0
-1538 -1602 0
-1539 -1603 0
-1540 -1604 0
-1537 -1629 0
-1538 -1630 0
-1539 -1631 0
-1540 -1632 0
-1537 -1677 0
-1538 -1678 0
-1539 -1679 0
-1540 -1680 0
-1537 -1713 0
-1538 -1714 0
-1539 -1715 0
-1540 -1716 0
-1537 -1793 0
-1538 -1794 0
-1539 -1795 0
-1540 -1796 0
-1537 -1813 0
-1538 -1814 0
-1539 -1815 0
-1540 -1816 0
-1537 -1837 0
-1538 -1838 0
-1539 -1839 0
-1540 -1840 0
-1541 -1549 0
-1542 -1550 0
-1543 -1551 0
-1544 -1552 0
-1541 -1557 0
-1542 -1558 0
-1543 -1559 0
-1544 -1560 0
-1541 -1581 0
-1542 -1582 0
-1543 -1583 0
-1544 -1584 0
-1541 -1589 0
-1542 -1590 0
-1543 -1591 0
-1544 -1592 0
-1541 -1609 0
-1542 -1610 0
-1543 -1611 0
-1544 -1612 0
-1541 -1637 0
-1542 -1638 0
-1543 -1639 0
-1544 -1640 0
-1541 -1641 0
-1542 -1642 0
-1543 -1643 0
-1544 -1644 0
-1541 -1645 0
-1542 -1646 0
-1543 -1647 0
-1544 -1648 0
-1541 -1673 0
-1542 -1674 0
-1543 -1675 0
-1544 -1676 0
-1541 -1685 0
-1542 -1686 0
-1543 -1687 0
-1544 -1688 0
-1541 -1793 0
-1542 -1794 0
-1543 -1795 0
-1544 -1796 0
-1541 -1797 0
-1542 -1798 0
-1543 -1799 0
-1544 -1800 0
-1541 -1817 0
-1542 -1818 0
-1543 -1819 0
-1544 -1820 0
-1545 -1553 0
-1546 -1554 0
-1547 -1555 0
-1548 -1556 0
-1545 -1561 0
-1546 -1562 0
-1547 -1563 0
-1548 -1564 0
-1545 -1597 0
-1546 -1598 0
-1547 -1599 0
-1548 -1600 0
-1545 -1617 0
-1546 -1618 0
-1547 -1619 0
-1548 -1620 0
-1545 -1681 0
-1546 -1682 0
-1547 -1683 0
-1548 -1684 0
-1545 -1693 0
-1546 -1694 0
-1547 -1695 0
-1548 -1696 0
-1545 -1797 0
-1546 -1798 0
-1547 -1799 0
-1548 -1800 0
-1545 -1801 0
-1546 -1802 0
-1547 -1803 0
-1548 -1804 0
-1545 -1821 0
-1546 -1822 0
-1547 -1823 0
-1548 -1824 0
-1549 -1557 0
-1550 -1558 0
-1551 -1559 0
-1552 -1560 0
-1549 -1569 0
-1550 -1570 0
-1551 -1571 0
-1552 -1572 0
-1549 -1605 0
-1550 -1606 0
-1551 -1607 0
-1552 -1608 0
-1549 -1625 0
-1550 -1626 0
-1551 -1627 0
-1552 -1628 0
-1549 -1645 0
-1550 -1646 0
-1551 -1647 0
-1552 -1648 0
-1549 -1649 0
-1550 -1650 0
-1551 -1651 0
-1552 -1652 0
-1549 -1689 0
-1550 -1690 0
-1551 -1691 0
-1552 -1692 0
-1549 -1701 0
-1550 -1702 0
-1551 -1703 0
-1552 -1704 0
-1549 -1801 0
-1550 -1802 0
-1551 -1803 0
-1552 -1804 0
-1549 -1805 0
-1550 -1806 0
-1551 -1807 0
-1552 -1808 0
-1553 -1577 0
-1554 -1578 0
-1555 -1579 0
-1556 -1580 0
-1553 -1613 0
-1554 -1614 0
-1555 -1615 0
-1556 -1616 0
-1553 -1633 0
-1554 -1634 0
-1555 -1635 0
-1556 -1636 0
-1553 -1697 0
-1554 -1698 0
-1555 -1699 0
-1556 -1700 0
-1553 -1709 0
-1554 -1710 0
-1555 -1711 0
-1556 -1712 0
-1553 -1805 0
-1554 -1806 0
-1555 -1807 0
-1556 -1808 0
-1553 -1809 0
-1554 -1810 0
-1555 -1811 0
-1556 -1812 0
-1553 -1825 0
-1554 -1826 0
-1555 -1827 0
-1556 -1828 0
-1553 -1829 0
-1554 -1830 0
-1555 -1831 0
-1556 -1832 0
-1557 -1565 0
-1558 -1566 0
-1559 -1567 0
-1560 -1568 0
-1557 -1585 0
-1558 -1586 0
-1559 -1587 0
-1560 -1588 0
-1557 -1593 0
-1558 -1594 0
-1559 -1595 0
-1560 -1596 0
-1557 -1621 0
-1558 -1622 0
-1559 -1623 0
-1560 -1624 0
-1557 -1641 0
-1558 -1642 0
-1559 -1643 0
-1560 -1644 0
-1557 -1649 0
-1558 -1650 0
-1559 -1651 0
-1560 -1652 0
-1557 -1705 0
-1558 -1706 0
-1559 -1707 0
-1560 -1708 0
-1557 -1717 0
-1558 -1718 0
-1559 -1719 0
-1560 -1720 0
-1557 -1809 0
-1558 -1810 0
-1559 -1811 0
-1560 -1812 0
-1557 -1813 0
-1558 -1814 0
-1559 -1815 0
-1560 -1816 0
-1557 -1833 0
-1558 -1834 0
-1559 -1835 0
-1560 -1836 0
-1561 -1633 0
-1562 -1634 0
-1563 -1635 0
-1564 -1636 0
-1561 -1681 0
-1562 -1682 0
-1563 -1683 0
-1564 -1684 0
-1561 -1789 0
-1562 -1790 0
-1563 -1791 0
-1564 -1792 0
-1561 -1817 0
-1562 -1818 0
-1563 -1819 0
-1564 -1820 0
-1561 -1837 0
-1562 -1838 0
-1563 -1839 0
-1564 -1840 0
-1561 -1841 0
-1562 -1842 0
-1563 -1843 0
-1564 -1844 0
-1565 -1605 0
-1566 -1606 0
-1567 -1607 0
-1568 -1608 0
-1565 -1661 0
-1566 -1662 0
-1567 -1663 0
-1568 -1664 0
-1565 -1717 0
-1566 -1718 0
-1567 -1719 0
-1568 -1720 0
-1565 -1753 0
-1566 -1754 0
-1567 -1755 0
-1568 -1756 0
-1565 -1845 0
-1566 -1846 0
-1567 -1847 0
-1568 -1848 0
-1569 -1593 0
-1570 -1594 0
-1571 -1595 0
-1572 -1596 0
-1569 -1653 0
-1570 -1654 0
-1571 -1655 0
-1572 -1656 0
-1569 -1689 0
-1570 -1690 0
-1571 -1691 0
-1572 -1692 0
-1569 -1749 0
-1570 -1750 0
-1571 -1751 0
-1572 -1752 0
-1569 -1817 0
-1570 -1818 0
-1571 -1819 0
-1572 -1820 0
-1569 -1821 0
-1570 -1822 0
-1571 -1823 0
-1572 -1824 0
-1569 -1849 0
-1570 -1850 0
-1571 -1851 0
-1572 -1852 0
-1573 -1613 0
-1574 -1614 0
-1575 -1615 0
-1576 -1616 0
-1573 -1665 0
-1574 -1666 0
-1575 -1667 0
-1576 -1668 0
-1573 -1677 0
-1574 -1678 0
-1575 -1679 0
-1576 -1680 0
-1573 -1761 0
-1574 -1762 0
-1575 -1763 0
-1576 -1764 0
-1573 -1853 0
-1574 -1854 0
-1575 -1855 0
-1576 -1856 0
-1577 -1601 0
-1578 -1602 0
-1579 -1603 0
-1580 -1604 0
-1577 -1657 0
-1578 -1658 0
-1579 -1659 0
-1580 -1660 0
-1577 -1697 0
-1578 -1698 0
-1579 -1699 0
-1580 -1700 0
-1577 -1757 0
-1578 -1758 0
-1579 -1759 0
-1580 -1760 0
-1577 -1821 0
-1578 -1822 0
-1579 -1823 0
-1580 -1824 0
-1577 -1857 0
-1578 -1858 0
-1579 -1859 0
-1580 -1860 0
-1581 -1621 0
-1582 -1622 0
-1583 -1623 0
-1584 -1624 0
-1581 -1685 0
-1582 -1686 0
-1583 -1687 0
-1584 -1688 0
-1581 -1769 0
-1582 -1770 0
-1583 -1771 0
-1584 -1772 0
-1581 -1861 0
-1582 -1862 0
-1583 -1863 0
-1584 -1864 0
-1585 -1609 0
-1586 -1610 0
-1587 -1611 0
-1588 -1612 0
-1585 -1705 0
-1586 -1706 0
-1587 -1707 0
-1588 -1708 0
-1585 -1765 0
-1586 -1766 0
-1587 -1767 0
-1588 -1768 0
-1585 -1825 0
-1586 -1826 0
-1587 -1827 0
-1588 -1828 0
-1585 -1865 0
-1586 -1866 0
-1587 -1867 0
-1588 -1868 0
-1589 -1625 0
-1590 -1626 0
-1591 -1627 0
-1592 -1628 0
-1589 -1669 0
-1590 -1670 0
-1591 -1671 0
-1592 -1672 0
-1589 -1673 0
-1590 -1674 0
-1591 -1675 0
-1592 -1676 0
-1589 -1781 0
-1590 -1782 0
-1591 -1783 0
-1592 -1784 0
-1589 -1833 0
-1590 -1834 0
-1591 -1835 0
-1592 -1836 0
-1589 -1837 0
-1590 -1838 0
-1591 -1839 0
-1592 -1840 0
-1589 -1881 0
-1590 -1882 0
-1591 -1883 0
-1592 -1884 0
-1593 -1601 0
-1594 -1602 0
-1595 -1603 0
-1596 -1604 0
-1593 -1633 0
-1594 -1634 0
-1595 -1635 0
-1596 -1636 0
-1593 -1725 0
-1594 -1726 0
-1595 -1727 0
-1596 -1728 0
-1593 -1813 0
-1594 -1814 0
-1595 -1815 0
-1596 -1816 0
-1593 -1817 0
-1594 -1818 0
-1595 -1819 0
-1596 -1820 0
-1593 -1845 0
-1594 -1846 0
-1595 -1847 0
-1596 -1848 0
-1593 -1885 0
-1594 -1886 0
-1595 -1887 0
-1596 -1888 0
-1593 -1889 0
-1594 -1890 0
-1595 -1891 0
-1596 -1892 0
-1593 -1905 0
-1594 -1906 0
-1595 -1907 0
-1596 -1908 0
-1593 -1929 0
-1594 -1930 0
-1595 -1931 0
-1596 -1932 0
-1597 -1605 0
-1598 -1606 0
-1599 -1607 0
-1600 -1608 0
-1597 -1637 0
-1598 -1638 0
-1599 -1639 0
-1600 -1640 0
-1597 -1721 0
-1598 -1722 0
-1599 -1723 0
-1600 -1724 0
-1597 -1797 0
-1598 -1798 0
-1599 -1799 0
-1600 -1800 0
-1597 -1841 0
-1598 -1842 0
-1599 -1843 0
-1600 -1844 0
-1597 -1849 0
-1598 -1850 0
-1599 -1851 0
-1600 -1852 0
-1597 -1889 0
-1598 -1890 0
-1599 -1891 0
-1600 -1892 0
-1597 -1909 0
-1598 -1910 0
-1599 -1911 0
-1600 -1912 0
-1597 -1933 0
-1598 -1934 0
-1599 -1935 0
-1600 -1936 0
-1601 -1609 0
-1602 -1610 0
-1603 -1611 0
-1604 -1612 0
-1601 -1729 0
-1602 -1730 0
-1603 -1731 0
-1604 -1732 0
-1601 -1793 0
-1602 -1794 0
-1603 -1795 0
-1604 -1796 0
-1601 -1821 0
-1602 -1822 0
-1603 -1823 0
-1604 -1824 0
-1601 -1845 0
-1602 -1846 0
-1603 -1847 0
-1604 -1848 0
-1601 -1853 0
-1602 -1854 0
-1603 -1855 0
-1604 -1856 0
-1601 -1909 0
-1602 -1910 0
-1603 -1911 0
-1604 -1912 0
-1601 -1937 0
-1602 -1938 0
-1603 -1939 0
-1604 -1940 0
-1605 -1613 0
-1606 -1614 0
-1607 -1615 0
-1608 -1616 0
-1605 -1725 0
-1606 -1726 0
-1607 -1727 0
-1608 -1728 0
-1605 -1801 0
-1606 -1802 0
-1607 -1803 0
-1608 -1804 0
-1605 -1849 0
-1606 -1850 0
-1607 -1851 0
-1608 -1852 0
-1605 -1857 0
-1606 -1858 0
-1607 -1859 0
-1608 -1860 0
-1605 -1913 0
-1606 -1914 0
-1607 -1915 0
-1608 -1916 0
-1605 -1941 0
-1606 -1942 0
-1607 -1943 0
-1608 -1944 0
-1609 -1617 0
-1610 -1618 0
-1611 -1619 0
-1612 -1620 0
-1609 -1733 0
-1610 -1734 0
-1611 -1735 0
-1612 -1736 0
-1609 -1797 0
-1610 -1798 0
-1611 -1799 0
-1612 -1800 0
-1609 -1853 0
-1610 -1854 0
-1611 -1855 0
-1612 -1856 0
-1609 -1861 0
-1610 -1862 0
-1611 -1863 0
-1612 -1864 0
-1609 -1893 0
-1610 -1894 0
-1611 -1895 0
-1612 -1896 0
-1609 -1913 0
-1610 -1914 0
-1611 -1915 0
-1612 -1916 0
-1609 -1945 0
-1610 -1946 0
-1611 -1947 0
-1612 -1948 0
-1613 -1621 0
-1614 -1622 0
-1615 -1623 0
-1616 -1624 0
-1613 -1729 0
-1614 -1730 0
-1615 -1731 0
-1616 -1732 0
-1613 -1805 0
-1614 -1806 0
-1615 -1807 0
-1616 -1808 0
-1613 -1857 0
-1614 -1858 0
-1615 -1859 0
-1616 -1860 0
-1613 -1865 0
-1614 -1866 0
-1615 -1867 0
-1616 -1868 0
-1613 -1893 0
-1614 -1894 0
-1615 -1895 0
-1616 -1896 0
-1613 -1917 0
-1614 -1918 0
-1615 -1919 0
-1616 -1920 0
-1613 -1949 0
-1614 -1950 0
-1615 -1951 0
-1616 -1952 0
-1617 -1625 0
-1618 -1626 0
-1619 -1627 0
-1620 -1628 0
-1617 -1737 0
-1618 -1738 0
-1619 -1739 0
-1620 -1740 0
-1617 -1801 0
-1618 -1802 0
-1619 -1803 0
-1620 -1804 0
-1617 -1825 0
-1618 -1826 0
-1619 -1827 0
-1620 -1828 0
-1617 -1861 0
-1618 -1862 0
-1619 -1863 0
-1620 -1864 0
-1617 -1869 0
-1618 -1870 0
-1619 -1871 0
-1620 -1872 0
-1617 -1897 0
-1618 -1898 0
-1619 -1899 0
-1620 -1900 0
-1617 -1917 0
-1618 -1918 0
-1619 -1919 0
-1620 -1920 0
-1617 -1953 0
-1618 -1954 0
-1619 -1955 0
-1620 -1956 0
-1621 -1629 0
-1622 -1630 0
-1623 -1631 0
-1624 -1632 0
-1621 -1733 0
-1622 -1734 0
-1623 -1735 0
-1624 -1736 0
-1621 -1809 0
-1622 -1810 0
-1623 -1811 0
-1624 -1812 0
-1621 -1865 0
-1622 -1866 0
-1623 -1867 0
-1624 -1868 0
-1621 -1873 0
-1622 -1874 0
-1623 -1875 0
-1624 -1876 0
-1621 -1897 0
-1622 -1898 0
-1623 -1899 0
-1624 -1900 0
-1621 -1921 0
-1622 -1922 0
-1623 -1923 0
-1624 -1924 0
-1621 -1957 0
-1622 -1958 0
-1623 -1959 0
-1624 -1960 0
-1625 -1633 0
-1626 -1634 0
-1627 -1635 0
-1628 -1636 0
-1625 -1741 0
-1626 -1742 0
-1627 -1743 0
-1628 -1744 0
-1625 -1805 0
-1626 -1806 0
-1627 -1807 0
-1628 -1808 0
-1625 -1833 0
-1626 -1834 0
-1627 -1835 0
-1628 -1836 0
-1625 -1869 0
-1626 -1870 0
-1627 -1871 0
-1628 -1872 0
-1625 -1877 0
-1626 -1878 0
-1627 -1879 0
-1628 -1880 0
-1625 -1921 0
-1626 -1922 0
-1627 -1923 0
-1628 -1924 0
-1625 -1961 0
-1626 -1962 0
-1627 -1963 0
-1628 -1964 0
-1629 -1637 0
-1630 -1638 0
-1631 -1639 0
-1632 -1640 0
-1629 -1737 0
-1630 -1738 0
-1631 -1739 0
-1632 -1740 0
-1629 -1813 0
-1630 -1814 0
-1631 -1815 0
-1632 -1816 0
-1629 -1829 0
-1630 -1830 0
-1631 -1831 0
-1632 -1832 0
-1629 -1873 0
-1630 -1874 0
-1631 -1875 0
-1632 -1876 0
-1629 -1881 0
-1630 -1882 0
-1631 -1883 0
-1632 -1884 0
-1629 -1925 0
-1630 -1926 0
-1631 -1927 0
-1632 -1928 0
-1629 -1965 0
-1630 -1966 0
-1631 -1967 0
-1632 -1968 0
-1633 -1721 0
-1634 -1722 0
-1635 -1723 0
-1636 -1724 0
-1633 -1809 0
-1634 -1810 0
-1635 -1811 0
-1636 -1812 0
-1633 -1837 0
-1634 -1838 0
-1635 -1839 0
-1636 -1840 0
-1633 -1877 0
-1634 -1878 0
-1635 -1879 0
-1636 -1880 0
-1633 -1885 0
-1634 -1886 0
-1635 -1887 0
-1636 -1888 0
-1633 -1901 0
-1634 -1902 0
-1635 -1903 0
-1636 -1904 0
-1633 -1925 0
-1634 -1926 0
-1635 -1927 0
-1636 -1928 0
-1633 -1969 0
-1634 -1970 0
-1635 -1971 0
-1636 -1972 0
-1637 -1741 0
-1638 -1742 0
-1639 -1743 0
-1640 -1744 0
-1637 -1793 0
-1638 -1794 0
-1639 -1795 0
-1640 -1796 0
-1637 -1841 0
-1638 -1842 0
-1639 -1843 0
-1640 -1844 0
-1637 -1881 0
-1638 -1882 0
-1639 -1883 0
-1640 -1884 0
-1637 -1901 0
-1638 -1902 0
-1639 -1903 0
-1640 -1904 0
-1637 -1905 0
-1638 -1906 0
-1639 -1907 0
-1640 -1908 0
-1637 -1973 0
-1638 -1974 0
-1639 -1975 0
-1640 -1976 0
-1641 -1677 0
-1642 -1678 0
-1643 -1679 0
-1644 -1680 0
-1641 -1713 0
-1642 -1714 0
-1643 -1715 0
-1644 -1716 0
-1645 -1681 0
-1646 -1682 0
-1647 -1683 0
-1648 -1684 0
-1645 -1693 0
-1646 -1694 0
-1647 -1695 0
-1648 -1696 0
-1649 -1697 0
-1650 -1698 0
-1651 -1699 0
-1652 -1700 0
-1649 -1709 0
-1650 -1710 0
-1651 -1711 0
-1652 -1712 0
-1653 -1681 0
-1654 -1682 0
-1655 -1683 0
-1656 -1684 0
-1653 -1789 0
-1654 -1790 0
-1655 -1791 0
-1656 -1792 0
-1653 -1905 0
-1654 -1906 0
-1655 -1907 0
-1656 -1908 0
-1653 -1933 0
-1654 -1934 0
-1655 -1935 0
-1656 -1936 0
-1657 -1689 0
-1658 -1690 0
-1659 -1691 0
-1660 -1692 0
-1657 -1749 0
-1658 -1750 0
-1659 -1751 0
-1660 -1752 0
-1657 -1909 0
-1658 -1910 0
-1659 -1911 0
-1660 -1912 0
-1657 -1941 0
-1658 -1942 0
-1659 -1943 0
-1660 -1944 0
-1661 -1677 0
-1662 -1678 0
-1663 -1679 0
-1664 -1680 0
-1661 -1761 0
-1662 -1762 0
-1663 -1763 0
-1664 -1764 0
-1661 -1913 0
-1662 -1914 0
-1663 -1915 0
-1664 -1916 0
-1661 -1937 0
-1662 -1938 0
-1663 -1939 0
-1664 -1940 0
-1665 -1685 0
-1666 -1686 0
-1667 -1687 0
-1668 -1688 0
-1665 -1769 0
-1666 -1770 0
-1667 -1771 0
-1668 -1772 0
-1665 -1917 0
-1666 -1918 0
-1667 -1919 0
-1668 -1920 0
-1665 -1945 0
-1666 -1946 0
-1667 -1947 0
-1668 -1948 0
-1669 -1713 0
-1670 -1714 0
-1671 -1715 0
-1672 -1716 0
-1669 -1773 0
-1670 -1774 0
-1671 -1775 0
-1672 -1776 0
-1669 -1921 0
-1670 -1922 0
-1671 -1923 0
-1672 -1924 0
-1669 -1965 0
-1670 -1966 0
-1671 -1967 0
-1672 -1968 0
-1673 -1813 0
-1674 -1814 0
-1675 -1815 0
-1676 -1816 0
-1673 -1817 0
-1674 -1818 0
-1675 -1819 0
-1676 -1820 0
-1673 -1973 0
-1674 -1974 0
-1675 -1975 0
-1676 -1976 0
-1673 -1977 0
-1674 -1978 0
-1675 -1979 0
-1676 -1980 0
-1677 -1797 0
-1678 -1798 0
-1679 -1799 0
-1680 -1800 0
-1677 -1937 0
-1678 -1938 0
-1679 -1939 0
-1680 -1940 0
-1681 -1793 0
-1682 -1794 0
-1683 -1795 0
-1684 -1796 0
-1681 -1821 0
-1682 -1822 0
-1683 -1823 0
-1684 -1824 0
-1681 -1933 0
-1682 -1934 0
-1683 -1935 0
-1684 -1936 0
-1685 -1801 0
-1686 -1802 0
-1687 -1803 0
-1688 -1804 0
-1685 -1945 0
-1686 -1946 0
-1687 -1947 0
-1688 -1948 0
-1689 -1797 0
-1690 -1798 0
-1691 -1799 0
-1692 -1800 0
-1689 -1941 0
-1690 -1942 0
-1691 -1943 0
-1692 -1944 0
-1689 -1981 0
-1690 -1982 0
-1691 -1983 0
-1692 -1984 0
-1693 -1805 0
-1694 -1806 0
-1695 -1807 0
-1696 -1808 0
-1693 -1953 0
-1694 -1954 0
-1695 -1955 0
-1696 -1956 0
-1697 -1801 0
-1698 -1802 0
-1699 -1803 0
-1700 -1804 0
-1697 -1825 0
-1698 -1826 0
-1699 -1827 0
-1700 -1828 0
-1697 -1949 0
-1698 -1950 0
-1699 -1951 0
-1700 -1952 0
-1701 -1809 0
-1702 -1810 0
-1703 -1811 0
-1704 -1812 0
-1701 -1961 0
-1702 -1962 0
-1703 -1963 0
-1704 -1964 0
-1701 -1985 0
-1702 -1986 0
-1703 -1987 0
-1704 -1988 0
-1705 -1805 0
-1706 -1806 0
-1707 -1807 0
-1708 -1808 0
-1705 -1833 0
-1706 -1834 0
-1707 -1835 0
-1708 -1836 0
-1705 -1957 0
-1706 -1958 0
-1707 -1959 0
-1708 -1960 0
-1709 -1813 0
-1710 -1814 0
-1711 -1815 0
-1712 -1816 0
-1709 -1829 0
-1710 -1830 0
-1711 -1831 0
-1712 -1832 0
-1709 -1969 0
-1710 -1970 0
-1711 -1971 0
-1712 -1972 0
-1713 -1809 0
-1714 -1810 0
-1715 -1811 0
-1716 -1812 0
-1713 -1837 0
-1714 -1838 0
-1715 -1839 0
-1716 -1840 0
-1713 -1965 0
-1714 -1966 0
-1715 -1967 0
-1716 -1968 0
-1713 -1989 0
-1714 -1990 0
-1715 -1991 0
-1716 -1992 0
-1717 -1793 0
-1718 -1794 0
-1719 -1795 0
-1720 -1796 0
-1717 -1929 0
-1718 -1930 0
-1719 -1931 0
-1720 -1932 0
-1721 -1749 0
-1722 -1750 0
-1723 -1751 0
-1724 -1752 0
-1721 -1785 0
-1722 -1786 0
-1723 -1787 0
-1724 -1788 0
-1721 -1889 0
-1722 -1890 0
-1723 -1891 0
-1724 -1892 0
-1721 -1901 0
-1722 -1902 0
-1723 -1903 0
-1724 -1904 0
-1721 -1977 0
-1722 -1978 0
-1723 -1979 0
-1724 -1980 0
-1725 -1745 0
-1726 -1746 0
-1727 -1747 0
-1728 -1748 0
-1725 -1757 0
-1726 -1758 0
-1727 -1759 0
-1728 -1760 0
-1725 -1889 0
-1726 -1890 0
-1727 -1891 0
-1728 -1892 0
-1729 -1753 0
-1730 -1754 0
-1731 -1755 0
-1732 -1756 0
-1729 -1765 0
-1730 -1766 0
-1731 -1767 0
-1732 -1768 0
-1729 -1893 0
-1730 -1894 0
-1731 -1895 0
-1732 -1896 0
-1729 -1981 0
-1730 -1982 0
-1731 -1983 0
-1732 -1984 0
-1733 -1761 0
-1734 -1762 0
-1735 -1763 0
-1736 -1764 0
-1733 -1773 0
-1734 -1774 0
-1735 -1775 0
-1736 -1776 0
-1733 -1893 0
-1734 -1894 0
-1735 -1895 0
-1736 -1896 0
-1733 -1897 0
-1734 -1898 0
-1735 -1899 0
-1736 -1900 0
-1737 -1769 0
-1738 -1770 0
-1739 -1771 0
-1740 -1772 0
-1737 -1781 0
-1738 -1782 0
-1739 -1783 0
-1740 -1784 0
-1737 -1897 0
-1738 -1898 0
-1739 -1899 0
-1740 -1900 0
-1737 -1985 0
-1738 -1986 0
-1739 -1987 0
-1740 -1988 0
-1741 -1777 0
-1742 -1778 0
-1743 -1779 0
-1744 -1780 0
-1741 -1789 0
-1742 -1790 0
-1743 -1791 0
-1744 -1792 0
-1741 -1901 0
-1742 -1902 0
-1743 -1903 0
-1744 -1904 0
-1741 -1989 0
-1742 -1990 0
-1743 -1991 0
-1744 -1992 0
-1745 -1885 0
-1746 -1886 0
-1747 -1887 0
-1748 -1888 0
-1745 -1933 0
-1746 -1934 0
-1747 -1935 0
-1748 -1936 0
-1745 -1993 0
-1746 -1994 0
-1747 -1995 0
-1748 -1996 0
-1749 -1849 0
-1750 -1850 0
-1751 -1851 0
-1752 -1852 0
-1749 -1929 0
-1750 -1930 0
-1751 -1931 0
-1752 -1932 0
-1749 -1997 0
-1750 -1998 0
-1751 -1999 0
-1752 -2000 0
-1753 -1845 0
-1754 -1846 0
-1755 -1847 0
-1756 -1848 0
-1753 -1941 0
-1754 -1942 0
-1755 -1943 0
-1756 -1944 0
-1753 -2001 0
-1754 -2002 0
-1755 -2003 0
-1756 -2004 0
-1757 -1857 0
-1758 -1858 0
-1759 -1859 0
-1760 -1860 0
-1757 -1937 0
-1758 -1938 0
-1759 -1939 0
-1760 -1940 0
-1757 -2005 0
-1758 -2006 0
-1759 -2007 0
-1760 -2008 0
-1761 -1853 0
-1762 -1854 0
-1763 -1855 0
-1764 -1856 0
-1761 -1949 0
-1762 -1950 0
-1763 -1951 0
-1764 -1952 0
-1761 -2009 0
-1762 -2010 0
-1763 -2011 0
-1764 -2012 0
-1765 -1865 0
-1766 -1866 0
-1767 -1867 0
-1768 -1868 0
-1765 -1945 0
-1766 -1946 0
-1767 -1947 0
-1768 -1948 0
-1765 -2013 0
-1766 -2014 0
-1767 -2015 0
-1768 -2016 0
-1769 -1861 0
-1770 -1862 0
-1771 -1863 0
-1772 -1864 0
-1769 -1957 0
-1770 -1958 0
-1771 -1959 0
-1772 -1960 0
-1769 -2017 0
-1770 -2018 0
-1771 -2019 0
-1772 -2020 0
-1773 -1873 0
-1774 -1874 0
-1775 -1875 0
-1776 -1876 0
-1773 -1953 0
-1774 -1954 0
-1775 -1955 0
-1776 -1956 0
-1773 -2021 0
-1774 -2022 0
-1775 -2023 0
-1776 -2024 0
-1777 -1869 0
-1778 -1870 0
-1779 -1871 0
-1780 -1872 0
-1777 -1965 0
-1778 -1966 0
-1779 -1967 0
-1780 -1968 0
-1777 -2025 0
-1778 -2026 0
-1779 -2027 0
-1780 -2028 0
-1781 -1881 0
-1782 -1882 0
-1783 -1883 0
-1784 -1884 0
-1781 -1961 0
-1782 -1962 0
-1783 -1963 0
-1784 -1964 0
-1781 -2029 0
-1782 -2030 0
-1783 -2031 0
-1784 -2032 0
-1785 -1877 0
-1786 -1878 0
-1787 -1879 0
-1788 -1880 0
-1785 -1973 0
-1786 -1974 0
-1787 -1975 0
-1788 -1976 0
-1785 -2033 0
-1786 -2034 0
-1787 -2035 0
-1788 -2036 0
-1789 -1841 0
-1790 -1842 0
-1791 -1843 0
-1792 -1844 0
-1789 -1969 0
-1790 -1970 0
-1791 -1971 0
-1792 -1972 0
-1789 -2037 0
-1790 -2038 0
-1791 -2039 0
-1792 -2040 0
-1793 -1837 0
-1794 -1838 0
-1795 -1839 0
-1796 -1840 0
-1793 -1905 0
-1794 -1906 0
-1795 -1907 0
-1796 -1908 0
-1793 -1909 0
-1794 -1910 0
-1795 -1911 0
-1796 -1912 0
-1793 -1977 0
-1794 -1978 0
-1795 -1979 0
-1796 -1980 0
-1793 -1993 0
-1794 -1994 0
-1795 -1995 0
-1796 -1996 0
-1793 -1997 0
-1794 -1998 0
-1795 -1999 0
-1796 -2000 0
-1797 -1817 0
-1798 -1818 0
-1799 -1819 0
-1800 -1820 0
-1797 -1909 0
-1798 -1910 0
-1799 -1911 0
-1800 -1912 0
-1797 -1913 0
-1798 -1914 0
-1799 -1915 0
-1800 -1916 0
-1797 -2001 0
-1798 -2002 0
-1799 -2003 0
-1800 -2004 0
-1797 -2005 0
-1798 -2006 0
-1799 -2007 0
-1800 -2008 0
-1801 -1821 0
-1802 -1822 0
-1803 -1823 0
-1804 -1824 0
-1801 -1913 0
-1802 -1914 0
-1803 -1915 0
-1804 -1916 0
-1801 -1917 0
-1802 -1918 0
-1803 -1919 0
-1804 -1920 0
-1801 -1981 0
-1802 -1982 0
-1803 -1983 0
-1804 -1984 0
-1801 -2009 0
-1802 -2010 0
-1803 -2011 0
-1804 -2012 0
-1801 -2013 0
-1802 -2014 0
-1803 -2015 0
-1804 -2016 0
-1805 -1829 0
-1806 -1830 0
-1807 -1831 0
-1808 -1832 0
-1805 -1917 0
-1806 -1918 0
-1807 -1919 0
-1808 -1920 0
-1805 -1921 0
-1806 -1922 0
-1807 -1923 0
-1808 -1924 0
-1805 -1985 0
-1806 -1986 0
-1807 -1987 0
-1808 -1988 0
-1805 -2017 0
-1806 -2018 0
-1807 -2019 0
-1808 -2020 0
-1805 -2021 0
-1806 -2022 0
-1807 -2023 0
-1808 -2024 0
-1809 -1825 0
-1810 -1826 0
-1811 -1827 0
-1812 -1828 0
-1809 -1921 0
-1810 -1922 0
-1811 -1923 0
-1812 -1924 0
-1809 -1925 0
-1810 -1926 0
-1811 -1927 0
-1812 -1928 0
-1809 -2025 0
-1810 -2026 0
-1811 -2027 0
-1812 -2028 0
-1809 -2029 0
-1810 -2030 0
-1811 -2031 0
-1812 -2032 0
-1813 -1833 0
-1814 -1834 0
-1815 -1835 0
-1816 -1836 0
-1813 -1905 0
-1814 -1906 0
-1815 -1907 0
-1816 -1908 0
-1813 -1925 0
-1814 -1926 0
-1815 -1927 0
-1816 -1928 0
-1813 -1989 0
-1814 -1990 0
-1815 -1991 0
-1816 -1992 0
-1813 -2033 0
-1814 -2034 0
-1815 -2035 0
-1816 -2036 0
-1813 -2037 0
-1814 -2038 0
-1815 -2039 0
-1816 -2040 0
-1817 -1841 0
-1818 -1842 0
-1819 -1843 0
-1820 -1844 0
-1817 -1997 0
-1818 -1998 0
-1819 -1999 0
-1820 -2000 0
-1821 -1849 0
-1822 -1850 0
-1823 -1851 0
-1824 -1852 0
-1821 -1981 0
-1822 -1982 0
-1823 -1983 0
-1824 -1984 0
-1821 -2005 0
-1822 -2006 0
-1823 -2007 0
-1824 -2008 0
-1825 -1865 0
-1826 -1866 0
-1827 -1867 0
-1828 -1868 0
-1825 -2021 0
-1826 -2022 0
-1827 -2023 0
-1828 -2024 0
-1829 -1877 0
-1830 -1878 0
-1831 -1879 0
-1832 -1880 0
-1829 -1985 0
-1830 -1986 0
-1831 -1987 0
-1832 -1988 0
-1829 -2025 0
-1830 -2026 0
-1831 -2027 0
-1832 -2028 0
-1833 -1873 0
-1834 -1874 0
-1835 -1875 0
-1836 -1876 0
-1833 -1989 0
-1834 -1990 0
-1835 -1991 0
-1836 -1992 0
-1833 -2029 0
-1834 -2030 0
-1835 -2031 0
-1836 -2032 0
-1837 -1881 0
-1838 -1882 0
-1839 -1883 0
-1840 -1884 0
-1837 -1977 0
-1838 -1978 0
-1839 -1979 0
-1840 -1980 0
-1837 -2037 0
-1838 -2038 0
-1839 -2039 0
-1840 -2040 0
-1841 -1885 0
-1842 -1886 0
-1843 -1887 0
-1844 -1888 0
-1841 -1933 0
-1842 -1934 0
-1843 -1935 0
-1844 -1936 0
-1841 -1973 0
-1842 -1974 0
-1843 -1975 0
-1844 -1976 0
-1841 -1997 0
-1842 -1998 0
-1843 -1999 0
-1844 -2000 0
-1845 -1849 0
-1846 -1850 0
-1847 -1851 0
-1848 -1852 0
-1845 -1929 0
-1846 -1930 0
-1847 -1931 0
-1848 -1932 0
-1845 -1937 0
-1846 -1938 0
-1847 -1939 0
-1848 -1940 0
-1845 -1993 0
-1846 -1994 0
-1847 -1995 0
-1848 -1996 0
-1849 -1933 0
-1850 -1934 0
-1851 -1935 0
-1852 -1936 0
-1849 -1941 0
-1850 -1942 0
-1851 -1943 0
-1852 -1944 0
-1849 -2005 0
-1850 -2006 0
-1851 -2007 0
-1852 -2008 0
-1853 -1857 0
-1854 -1858 0
-1855 -1859 0
-1856 -1860 0
-1853 -1937 0
-1854 -1938 0
-1855 -1939 0
-1856 -1940 0
-1853 -1945 0
-1854 -1946 0
-1855 -1947 0
-1856 -1948 0
-1853 -2001 0
-1854 -2002 0
-1855 -2003 0
-1856 -2004 0
-1857 -1941 0
-1858 -1942 0
-1859 -1943 0
-1860 -1944 0
-1857 -1949 0
-1858 -1950 0
-1859 -1951 0
-1860 -1952 0
-1857 -2013 0
-1858 -2014 0
-1859 -2015 0
-1860 -2016 0
-1861 -1865 0
-1862 -1866 0
-1863 -1867 0
-1864 -1868 0
-1861 -1945 0
-1862 -1946 0
-1863 -1947 0
-1864 -1948 0
-1861 -1953 0
-1862 -1954 0
-1863 -1955 0
-1864 -1956 0
-1861 -2009 0
-1862 -2010 0
-1863 -2011 0
-1864 -2012 0
-1865 -1949 0
-1866 -1950 0
-1867 -1951 0
-1868 -1952 0
-1865 -1957 0
-1866 -1958 0
-1867 -1959 0
-1868 -1960 0
-1865 -2021 0
-1866 -2022 0
-1867 -2023 0
-1868 -2024 0
-1869 -1873 0
-1870 -1874 0
-1871 -1875 0
-1872 -1876 0
-1869 -1953 0
-1870 -1954 0
-1871 -1955 0
-1872 -1956 0
-1869 -1961 0
-1870 -1962 0
-1871 -1963 0
-1872 -1964 0
-1869 -2017 0
-1870 -2018 0
-1871 -2019 0
-1872 -2020 0
-1873 -1957 0
-1874 -1958 0
-1875 -1959 0
-1876 -1960 0
-1873 -1965 0
-1874 -1966 0
-1875 -1967 0
-1876 -1968 0
-1873 -2029 0
-1874 -2030 0
-1875 -2031 0
-1876 -2032 0
-1877 -1881 0
-1878 -1882 0
-1879 -1883 0
-1880 -1884 0
-1877 -1961 0
-1878 -1962 0
-1879 -1963 0
-1880 -1964 0
-1877 -1969 0
-1878 -1970 0
-1879 -1971 0
-1880 -1972 0
-1877 -2025 0
-1878 -2026 0
-1879 -2027 0
-1880 -2028 0
-1881 -1965 0
-1882 -1966 0
-1883 -1967 0
-1884 -1968 0
-1881 -1973 0
-1882 -1974 0
-1883 -1975 0
-1884 -1976 0
-1881 -2037 0
-1882 -2038 0
-1883 -2039 0
-1884 -2040 0
-1885 -1929 0
-1886 -1930 0
-1887 -1931 0
-1888 -1932 0
-1885 -1969 0
-1886 -1970 0
-1887 -1971 0
-1888 -1972 0
-1885 -2033 0
-1886 -2034 0
-1887 -2035 0
-1888 -2036 0
-1889 -1905 0
-1890 -1906 0
-1891 -1907 0
-1892 -1908 0
-1889 -1909 0
-1890 -1910 0
-1891 -1911 0
-1892 -1912 0
-1893 -1913 0
-1894 -1914 0
-1895 -1915 0
-1896 -1916 0
-1893 -1917 0
-1894 -1918 0
-1895 -1919 0
-1896 -1920 0
-1897 -1917 0
-1898 -1918 0
-1899 -1919 0
-1900 -1920 0
-1897 -1921 0
-1898 -1922 0
-1899 -1923 0
-1900 -1924 0
-1901 -1905 0
-1902 -1906 0
-1903 -1907 0
-1904 -1908 0
-1901 -1925 0
-1902 -1926 0
-1903 -1927 0
-1904 -1928 0
-1905 -1993 0
-1906 -1994 0
-1907 -1995 0
-1908 -1996 0
-1905 -2037 0
-1906 -2038 0
-1907 -2039 0
-1908 -2040 0
-1909 -1997 0
-1910 -1998 0
-1911 -1999 0
-1912 -2000 0
-1909 -2001 0
-1910 -2002 0
-1911 -2003 0
-1912 -2004 0
-1913 -2005 0
-1914 -2006 0
-1915 -2007 0
-1916 -2008 0
-1913 -2009 0
-1914 -2010 0
-1915 -2011 0
-1916 -2012 0
-1917 -2013 0
-1918 -2014 0
-1919 -2015 0
-1920 -2016 0
-1917 -2017 0
-1918 -2018 0
-1919 -2019 0
-1920 -2020 0
-1921 -2021 0
-1922 -2022 0
-1923 -2023 0
-1924 -2024 0
-1921 -2025 0
-1922 -2026 0
-1923 -2027 0
-1924 -2028 0
-1925 -2029 0
-1926 -2030 0
-1927 -2031 0
-1928 -2032 0
-1925 -2033 0
-1926 -2034 0
-1927 -2035 0
-1928 -2036 0
-1929 -1997 0
-1930 -1998 0
-1931 -1999 0
-1932 -2000 0
-1933 -1993 0
-1934 -1994 0
-1935 -1995 0
-1936 -1996 0
-1937 -2005 0
-1938 -2006 0
-1939 -2007 0
-1940 -2008 0
-1941 -1981 0
-1942 -1982 0
-1943 -1983 0
-1944 -1984 0
-1941 -2001 0
-1942 -2002 0
-1943 -2003 0
-1944 -2004 0
-1945 -2013 0
-1946 -2014 0
-1947 -2015 0
-1948 -2016 0
-1949 -2009 0
-1950 -2010 0
-1951 -2011 0
-1952 -2012 0
-1953 -2021 0
-1954 -2022 0
-1955 -2023 0
-1956 -2024 0
-1957 -2017 0
-1958 -2018 0
-1959 -2019 0
-1960 -2020 0
-1961 -1985 0
-1962 -1986 0
-1963 -1987 0
-1964 -1988 0
-1961 -2029 0
-1962 -2030 0
-1963 -2031 0
-1964 -2032 0
-1965 -1989 0
-1966 -1990 0
-1967 -1991 0
-1968 -1992 0
-1965 -2025 0
-1966 -2026 0
-1967 -2027 0
-1968 -2028 0
-1969 -2037 0
-1970 -2038 0
-1971 -2039 0
-1972 -2040 0
-1973 -1977 0
-1974 -1978 0
-1975 -1979 0
-1976 -1980 0
-1973 -2033 0
-1974 -2034 0
-1975 -2035 0
-1976 -2036 0
-1977 -1997 0
-1978 -1998 0
-1979 -1999 0
-1980 -2000 0
-1981 -2013 0
-1982 -2014 0
-1983 -2015 0
-1984 -2016 0
-1985 -2017 0
-1986 -2018 0
-1987 -2019 0
-1988 -2020 0
-1989 -2037 0
-1990 -2038 0
-1991 -2039 0
-1992 -2040 0
