0 149
0 150
0 151
0 152
0 153
0 154
0 155
0 156
0 157
0 158
0 159
0 160
0 161
0 162
0 163
0 164
0 165
0 166
0 167
0 168
0 169
0 170
0 171
0 172
0 410
0 411
0 412
0 413
0 414
0 415
0 416
0 417
0 418
0 419
0 420
0 421
1 123
1 124
1 134
1 141
1 145
1 156
1 168
1 175
1 183
1 186
1 196
1 197
1 199
2 135
2 142
2 146
2 170
2 176
2 184
2 185
2 187
2 198
2 200
3 125
3 134
3 143
3 147
3 159
3 173
3 177
3 186
3 188
3 200
3 202
4 126
4 127
4 135
4 144
4 148
4 149
4 161
4 174
4 178
4 187
4 189
4 201
4 203
4 215
5 128
5 129
5 136
5 137
5 145
5 152
5 164
5 175
5 179
5 188
5 190
5 203
5 205
6 130
6 131
6 138
6 146
6 154
6 176
6 180
6 189
6 191
6 204
6 206
7 136
7 139
7 147
7 167
7 177
7 181
7 190
7 192
7 206
7 208
8 115
8 116
8 131
8 140
8 148
8 157
8 169
8 178
8 182
8 191
8 193
8 207
8 209
8 216
9 117
9 118
9 132
9 137
9 141
9 160
9 172
9 179
9 183
9 192
9 194
9 209
9 211
10 119
10 133
10 138
10 142
10 162
10 180
10 184
10 193
10 195
10 210
10 212
11 120
11 132
11 139
11 143
11 151
11 173
11 181
11 194
11 196
11 212
11 214
12 121
12 122
12 133
12 140
12 144
12 153
12 165
12 174
12 182
12 185
12 195
12 197
12 213
12 217
13 85
13 126
13 156
13 169
13 201
13 231
14 87
14 97
14 99
14 122
14 157
14 171
14 197
14 202
14 218
14 220
14 232
14 233
15 86
15 98
15 100
15 128
15 158
15 172
15 198
15 203
15 219
15 221
15 234
15 235
16 88
16 124
16 149
16 160
16 199
16 236
17 89
17 115
17 153
17 164
17 207
17 239
18 79
18 91
18 101
18 127
18 155
18 165
18 203
18 208
18 222
18 224
18 240
18 241
19 90
19 92
19 102
19 117
19 156
19 166
19 204
19 209
19 223
19 225
19 242
19 243
20 80
20 129
20 157
20 168
20 205
20 244
21 81
21 121
21 161
21 172
21 213
21 247
22 83
22 93
22 95
22 116
22 149
22 163
22 209
22 214
22 226
22 228
22 248
22 249
23 82
23 94
23 96
23 123
23 150
23 164
23 197
23 210
23 227
23 229
23 250
23 251
24 84
24 118
24 152
24 165
24 211
24 252
25 84
25 87
25 108
25 111
25 176
25 183
25 233
26 86
26 89
26 110
26 113
26 173
26 178
26 234
27 79
27 88
27 103
27 112
27 175
27 180
27 241
28 81
28 90
28 105
28 114
28 177
28 182
28 242
29 80
29 83
29 104
29 107
29 179
29 184
29 249
30 82
30 85
30 106
30 109
30 174
30 181
30 250
31 64
31 65
31 83
31 87
31 119
31 126
31 140
31 146
31 187
31 195
31 228
31 232
31 269
32 66
32 67
32 76
32 84
32 88
32 128
32 141
32 147
32 188
32 196
32 221
32 230
32 236
32 257
32 259
33 67
33 68
33 77
33 85
33 89
33 122
33 142
33 148
33 185
33 189
33 218
33 231
33 237
33 258
33 260
34 69
34 70
34 86
34 90
34 124
34 137
34 143
34 186
34 190
34 223
34 235
34 270
35 70
35 71
35 79
35 87
35 115
35 138
35 144
35 187
35 191
35 220
35 240
35 271
36 55
36 72
36 78
36 80
36 88
36 117
36 139
36 145
36 188
36 192
36 225
36 238
36 244
36 261
36 263
37 55
37 56
37 73
37 81
37 89
37 127
37 140
37 146
37 189
37 193
37 222
37 239
37 245
37 262
37 264
38 57
38 58
38 82
38 90
38 120
38 129
38 141
38 147
38 190
38 194
38 227
38 243
38 272
39 58
39 59
39 79
39 83
39 121
39 130
39 142
39 148
39 191
39 195
39 224
39 248
39 273
40 60
40 61
40 74
40 80
40 84
40 123
40 137
40 143
40 192
40 196
40 229
40 246
40 252
40 265
40 267
41 61
41 62
41 75
41 81
41 85
41 116
41 138
41 144
41 185
41 193
41 226
41 247
41 253
41 266
41 268
42 63
42 64
42 82
42 86
42 118
42 125
42 139
42 145
42 186
42 194
42 219
42 251
42 274
43 63
43 66
43 99
43 155
43 168
43 175
43 233
43 252
43 257
43 274
43 275
44 64
44 67
44 75
44 95
44 100
44 156
44 170
44 176
44 183
44 235
44 253
44 254
44 258
44 276
45 67
45 70
45 78
45 97
45 102
45 149
45 159
45 173
45 178
45 232
45 238
45 254
45 259
45 279
46 68
46 71
46 98
46 150
46 161
46 174
46 234
46 239
46 260
46 271
46 280
47 69
47 72
47 91
47 152
47 163
47 179
47 236
47 241
47 261
47 270
47 281
48 55
48 70
48 77
48 92
48 99
48 154
48 164
48 175
48 180
48 237
48 243
48 255
48 262
48 282
49 55
49 58
49 74
49 94
49 101
49 157
49 167
49 177
49 182
49 240
49 246
49 255
49 263
49 285
50 56
50 59
50 102
50 158
50 169
50 178
50 242
50 247
50 264
50 273
50 286
51 57
51 60
51 95
51 160
51 171
51 183
51 244
51 249
51 265
51 272
51 287
52 58
52 61
52 73
52 91
52 96
52 162
52 172
52 179
52 184
52 245
52 251
52 256
52 266
52 288
53 61
53 64
53 76
53 93
53 98
53 151
53 165
53 174
53 181
53 230
53 248
53 256
53 267
53 291
54 62
54 65
54 94
54 153
54 166
54 182
54 231
54 250
54 268
54 269
54 292
55 61
55 67
55 94
55 99
55 139
55 146
55 154
55 167
55 200
55 212
55 232
55 251
55 257
55 268
55 276
55 291
55 293
55 304
55 305
55 322
56 62
56 68
56 100
56 127
56 140
56 155
56 169
56 201
56 213
56 234
56 258
56 277
56 292
56 305
56 306
57 63
57 69
57 95
57 120
57 147
57 171
57 202
57 214
57 236
57 275
57 278
57 307
58 64
58 70
58 96
58 101
58 121
58 129
58 141
58 148
58 157
58 172
58 197
58 203
58 230
58 237
58 276
58 279
58 294
58 295
58 307
58 308
59 65
59 71
59 102
59 130
59 142
59 158
59 198
59 204
59 231
59 277
59 280
59 308
60 66
60 72
60 97
60 123
60 137
60 150
60 160
60 199
60 205
60 233
60 259
60 278
60 281
60 309
60 310
61 67
61 91
61 98
61 138
61 143
61 151
61 162
61 200
61 206
61 235
61 240
61 260
61 261
61 279
61 282
61 296
61 297
61 310
61 311
62 68
62 92
62 116
62 144
62 153
62 163
62 201
62 207
62 242
62 262
62 280
62 283
62 311
62 312
63 69
63 99
63 125
63 139
63 155
63 202
63 208
63 244
63 281
63 284
63 313
64 70
64 93
64 100
64 118
64 126
64 140
64 145
64 156
64 165
64 203
64 209
64 238
64 245
64 282
64 285
64 298
64 299
64 313
64 314
65 71
65 94
65 119
65 146
65 166
65 204
65 210
65 239
65 283
65 286
65 314
66 72
66 101
66 128
66 141
66 158
66 168
66 205
66 211
66 241
66 263
66 284
66 287
66 315
66 316
67 95
67 102
67 142
67 147
67 159
67 170
67 206
67 212
67 243
67 248
67 264
67 265
67 285
67 288
67 300
67 301
67 316
67 317
68 96
68 122
68 148
68 161
68 171
68 207
68 213
68 250
68 266
68 286
68 289
68 317
68 318
69 91
69 143
69 163
69 208
69 214
69 252
69 287
69 290
69 319
70 92
70 97
70 115
70 124
70 137
70 144
70 149
70 164
70 197
70 209
70 246
70 253
70 288
70 291
70 302
70 303
70 319
70 320
71 98
71 138
71 150
71 198
71 210
71 247
71 289
71 292
71 320
72 93
72 117
72 145
72 152
72 166
72 199
72 211
72 249
72 267
72 275
72 290
72 321
72 322
73 89
73 107
73 133
73 184
73 217
73 260
73 293
73 306
74 84
74 114
74 136
74 177
74 257
74 296
74 309
75 81
75 111
75 135
75 176
75 215
75 264
75 297
75 312
76 88
76 106
76 132
76 181
76 261
76 300
76 315
77 85
77 103
77 131
77 180
77 216
77 268
77 301
77 318
78 80
78 110
78 134
78 173
78 265
78 304
78 321
79 112
79 127
79 187
79 195
79 277
79 291
79 294
79 323
80 107
80 120
80 129
80 188
80 196
80 275
80 279
80 293
81 114
81 121
81 130
81 185
81 189
81 276
81 280
81 296
82 109
82 123
82 186
82 190
82 278
82 282
82 295
82 324
83 104
83 116
83 187
83 191
83 279
83 283
83 298
83 325
84 111
84 118
84 125
84 188
84 192
84 281
84 285
84 297
85 106
85 119
85 126
85 189
85 193
85 282
85 286
85 300
86 113
86 128
86 190
86 194
86 284
86 288
86 299
86 326
87 108
87 122
87 191
87 195
87 285
87 289
87 302
87 327
88 103
88 124
88 192
88 196
88 287
88 291
88 301
89 110
89 115
89 185
89 193
89 288
89 292
89 304
90 105
90 117
90 186
90 194
90 276
90 290
90 303
90 328
91 155
91 170
91 235
91 252
91 307
91 322
91 329
92 156
92 171
92 253
92 305
92 308
92 330
93 149
93 158
93 238
93 307
93 310
93 331
94 150
94 159
94 232
94 239
94 308
94 311
94 332
95 154
95 163
95 236
95 243
95 310
95 313
95 333
96 155
96 164
96 237
96 311
96 314
96 334
97 157
97 166
97 246
97 313
97 316
97 335
98 158
98 167
98 240
98 247
98 314
98 317
98 336
99 162
99 171
99 244
99 251
99 316
99 319
99 337
100 163
100 172
100 245
100 317
100 320
100 338
101 150
101 165
101 230
101 319
101 322
101 339
102 151
102 166
102 231
102 248
102 305
102 320
102 340
103 106
103 175
103 201
103 323
104 113
104 184
104 214
105 108
105 177
105 204
106 174
106 199
106 324
107 110
107 179
107 207
107 325
108 176
108 202
109 112
109 181
109 210
110 178
110 205
110 326
111 114
111 183
111 213
111 327
112 180
112 208
113 173
113 198
114 182
114 211
114 328
115 140
115 220
115 292
115 323
115 341
115 347
116 148
116 215
116 269
116 279
116 341
117 141
117 270
117 276
117 342
118 137
118 219
118 281
118 324
118 342
118 348
119 138
119 282
120 143
120 279
121 144
121 224
121 280
121 325
121 343
121 349
122 140
122 216
122 271
122 285
122 343
123 145
123 272
123 282
123 344
124 141
124 223
124 287
124 326
124 344
124 350
125 147
125 285
126 148
126 228
126 286
126 327
126 345
126 351
127 144
127 217
127 273
127 291
127 345
128 137
128 274
128 288
128 346
129 145
129 227
129 275
129 328
129 346
129 352
130 146
130 276
131 154
131 169
131 258
131 268
131 347
132 151
132 160
132 259
132 261
132 348
133 153
133 162
133 260
133 262
133 349
134 159
134 168
134 263
134 265
134 350
135 161
135 170
135 264
135 266
135 351
136 152
136 167
136 257
136 267
136 352
137 175
137 183
137 235
137 252
137 259
137 328
137 353
138 176
138 184
138 253
138 260
138 347
139 173
139 177
139 238
139 257
139 348
140 174
140 178
140 232
140 239
140 258
140 325
140 354
141 175
141 179
141 236
141 243
141 263
141 324
141 355
142 176
142 180
142 237
142 264
142 349
143 177
143 181
143 246
143 261
143 350
144 178
144 182
144 240
144 247
144 262
144 327
144 356
145 179
145 183
145 244
145 251
145 267
145 326
145 357
146 180
146 184
146 245
146 268
146 351
147 173
147 181
147 230
147 265
147 352
148 174
148 182
148 231
148 248
148 266
148 323
148 358
149 154
149 170
149 187
149 228
149 254
149 291
149 307
149 321
149 330
149 340
149 341
149 358
149 371
150 155
150 171
150 220
150 229
150 278
150 292
150 308
150 322
150 353
150 362
151 156
151 172
151 196
151 221
151 279
151 305
151 329
151 331
151 359
151 362
151 372
152 188
152 275
152 309
152 342
152 363
153 185
153 280
153 306
153 341
154 157
154 189
154 218
154 276
154 310
154 330
154 332
154 359
154 363
154 364
154 373
155 158
155 219
155 222
155 277
155 281
155 307
155 311
155 354
155 364
156 159
156 186
156 223
156 254
156 282
156 308
156 312
156 331
156 333
156 342
156 355
156 374
157 162
157 191
157 220
157 255
157 279
157 309
157 313
157 332
157 334
157 343
157 354
157 375
158 163
158 221
158 224
158 280
158 284
158 310
158 314
158 355
158 365
159 164
159 188
159 225
159 285
159 311
159 333
159 335
159 360
159 365
159 376
160 192
160 281
160 315
160 344
160 366
161 189
161 286
161 312
161 343
162 165
162 193
162 222
162 282
162 316
162 334
162 336
162 360
162 366
162 367
162 377
163 166
163 223
163 226
163 283
163 287
163 313
163 317
163 356
163 367
164 167
164 190
164 227
164 255
164 288
164 314
164 318
164 335
164 337
164 344
164 357
164 378
165 170
165 195
165 224
165 256
165 285
165 315
165 319
165 336
165 338
165 345
165 356
165 379
166 171
166 225
166 228
166 286
166 290
166 316
166 320
166 357
166 368
167 172
167 192
167 229
167 291
167 317
167 337
167 339
167 361
167 368
167 380
168 196
168 287
168 321
168 346
168 369
169 193
169 292
169 318
169 345
170 185
170 226
170 288
170 322
170 338
170 340
170 361
170 369
170 370
170 381
171 218
171 227
171 275
171 289
171 305
171 319
171 358
171 370
172 194
172 219
172 256
172 276
172 306
172 320
172 329
172 339
172 346
172 353
172 382
173 259
173 304
173 362
173 383
174 217
174 260
174 295
174 323
175 257
175 294
175 324
175 363
176 258
176 297
176 364
176 384
177 263
177 296
177 365
177 385
178 215
178 264
178 299
178 325
179 261
179 298
179 326
179 366
180 262
180 301
180 367
180 386
181 267
181 300
181 368
181 387
182 216
182 268
182 303
182 327
183 265
183 302
183 328
183 369
184 266
184 293
184 370
184 388
185 200
185 213
185 258
185 268
185 341
185 388
186 197
186 202
186 342
187 198
187 203
187 341
188 200
188 205
188 259
188 261
188 342
188 385
189 201
189 206
189 260
189 262
189 343
189 384
190 203
190 208
190 344
191 204
191 209
191 343
192 206
192 211
192 263
192 265
192 344
192 387
193 207
193 212
193 264
193 266
193 345
193 386
194 209
194 214
194 346
195 197
195 210
195 345
196 199
196 212
196 257
196 267
196 346
196 383
197 232
197 251
197 294
197 303
198 234
198 340
198 362
199 236
199 331
199 363
200 230
200 237
200 293
200 296
200 362
200 364
201 231
201 330
202 233
202 333
202 364
203 235
203 240
203 295
203 298
204 242
204 332
204 365
205 244
205 335
205 366
206 238
206 245
206 297
206 300
206 365
206 367
207 239
207 334
208 241
208 337
208 367
209 243
209 248
209 299
209 302
210 250
210 336
210 368
211 252
211 339
211 369
212 246
212 253
212 301
212 304
212 368
212 370
213 247
213 338
214 249
214 329
214 370
215 254
215 312
216 255
216 318
217 256
217 306
218 304
218 358
219 274
219 295
219 353
220 271
220 294
220 354
221 297
221 355
222 296
222 354
223 270
223 299
223 355
224 273
224 298
224 356
225 301
225 357
226 300
226 356
227 272
227 303
227 357
228 269
228 302
228 358
229 293
229 353
230 291
230 307
230 352
230 362
230 382
231 292
231 308
232 269
232 279
232 305
232 373
233 275
233 309
233 364
234 280
234 306
234 362
235 270
235 276
235 310
235 372
236 281
236 307
236 363
237 282
237 308
237 349
237 364
237 375
238 279
238 313
238 348
238 365
238 374
239 280
239 314
240 271
240 285
240 311
240 377
241 281
241 315
241 367
242 286
242 312
242 365
243 272
243 282
243 316
243 376
244 287
244 313
244 366
245 288
245 314
245 351
245 367
245 379
246 285
246 319
246 350
246 368
246 378
247 286
247 320
248 273
248 291
248 317
248 381
249 287
249 321
249 370
250 292
250 318
250 368
251 274
251 288
251 322
251 380
252 275
252 319
252 369
253 276
253 320
253 347
253 370
253 371
254 490
255 492
256 488
257 274
257 363
257 383
258 347
258 364
259 348
259 362
260 271
260 384
261 270
261 366
261 385
262 349
262 367
263 350
263 365
264 273
264 386
265 272
265 369
265 387
266 351
266 370
267 352
267 368
268 269
268 388
269 341
270 342
271 343
272 344
273 345
274 346
275 307
275 321
275 352
276 308
276 322
276 328
276 359
277 305
278 310
279 307
279 311
279 325
279 359
280 308
280 312
280 349
281 309
281 313
281 348
282 310
282 314
282 324
282 360
283 311
284 316
285 313
285 317
285 327
285 360
286 314
286 318
286 351
287 315
287 319
287 350
288 316
288 320
288 326
288 361
289 317
290 322
291 305
291 319
291 323
291 361
292 306
292 320
292 347
293 304
293 388
294 295
294 323
294 353
295 324
295 354
296 297
296 385
297 384
298 299
298 325
298 355
299 326
299 356
300 301
300 387
301 386
302 303
302 327
302 357
303 328
303 358
304 383
305 330
305 362
307 329
307 364
308 332
308 362
309 363
310 331
310 364
311 334
311 365
313 333
313 367
314 336
314 365
315 366
316 335
316 367
317 338
317 368
319 337
319 370
320 340
320 368
321 369
322 339
322 370
323 341
324 342
325 343
326 344
327 345
328 346
329 340
329 372
329 382
330 331
330 371
330 373
331 372
331 374
332 333
332 373
332 375
333 374
333 376
334 335
334 375
334 377
335 376
335 378
336 337
336 377
336 379
337 378
337 380
338 339
338 379
338 381
339 380
339 382
340 371
340 381
347 388
348 385
349 384
350 387
351 386
352 383
353 362
354 364
355 365
356 367
357 368
358 370
359 443
360 444
361 441
362 383
364 384
365 385
367 386
368 387
370 388
371 500
372 501
373 502
374 503
375 504
376 505
377 506
378 507
379 496
380 497
381 498
382 499
389 398
389 399
389 404
389 408
389 413
389 420
389 428
389 431
389 440
389 441
389 445
389 446
389 457
390 399
390 400
390 406
390 410
390 415
390 426
390 430
390 433
390 441
390 442
390 447
390 448
390 458
391 395
391 400
391 402
391 407
391 412
391 417
391 432
391 435
391 442
391 443
391 449
391 450
391 459
392 395
392 396
392 409
392 414
392 419
392 434
392 437
392 443
392 451
392 452
392 460
393 396
393 397
393 401
393 405
393 416
393 421
393 427
393 436
393 439
393 444
393 453
393 454
393 461
394 397
394 398
394 403
394 411
394 418
394 425
394 429
394 438
394 444
394 455
394 456
394 462
395 397
395 399
395 407
395 412
395 419
395 422
395 424
395 430
395 439
395 457
395 462
395 463
395 472
396 398
396 400
396 405
396 409
396 414
396 421
396 429
396 432
396 457
396 458
396 464
397 399
397 401
397 411
397 416
397 422
397 423
397 431
397 434
397 458
397 459
397 465
397 466
398 400
398 403
398 408
398 413
398 418
398 433
398 436
398 459
398 460
398 467
399 404
399 415
399 420
399 423
399 424
399 435
399 438
399 460
399 461
399 468
399 469
400 402
400 406
400 410
400 417
400 437
400 440
400 461
400 462
400 470
400 471
401 420
401 431
401 456
401 464
401 472
401 473
402 413
402 440
402 447
402 463
402 474
403 410
403 425
403 433
403 446
403 464
403 465
403 475
404 412
404 435
404 448
404 465
404 467
404 477
405 417
405 427
405 432
405 451
405 466
405 478
406 414
406 426
406 437
406 450
406 467
406 468
406 479
407 416
407 439
407 452
407 468
407 470
407 481
408 421
408 428
408 436
408 455
408 469
408 471
408 482
409 418
409 429
409 454
409 470
409 472
409 483
410 412
410 420
410 441
410 462
410 464
410 474
410 484
410 496
411 413
411 421
411 458
411 463
411 473
411 475
411 488
411 497
412 414
412 442
412 457
412 465
412 474
412 476
412 485
412 488
412 493
412 498
413 415
413 441
413 459
413 475
413 477
413 485
413 489
413 499
414 416
414 443
414 458
414 467
414 476
414 478
414 486
414 489
414 500
415 417
415 442
415 460
415 466
415 477
415 479
415 486
415 490
415 494
415 501
416 418
416 459
416 468
416 478
416 480
416 490
416 502
417 419
417 443
417 461
417 479
417 481
417 491
417 503
418 420
418 444
418 460
418 470
418 480
418 482
418 487
418 491
418 504
419 421
419 462
419 469
419 481
419 483
419 487
419 492
419 495
419 505
420 461
420 472
420 482
420 484
420 492
420 506
421 444
421 457
421 471
421 473
421 483
421 507
422 429
422 432
422 493
423 433
423 436
423 494
424 437
424 440
424 495
425 428
425 431
425 456
425 497
426 435
426 448
426 489
426 501
427 434
427 453
427 491
427 502
428 438
428 445
428 506
429 462
429 464
429 507
429 508
430 458
430 463
430 498
431 457
431 465
431 497
432 459
432 493
432 500
433 458
433 467
433 494
433 499
433 509
434 460
434 466
434 502
435 459
435 468
435 501
436 461
436 504
436 510
437 460
437 470
437 495
437 503
437 511
438 462
438 469
438 506
439 461
439 472
439 505
440 457
440 471
440 496
440 512
441 445
441 448
441 485
442 447
442 450
442 485
442 486
442 509
443 449
443 452
443 486
444 453
444 456
444 487
445 484
445 497
445 513
446 475
446 496
446 514
447 474
447 499
447 515
448 477
448 498
448 516
449 476
449 501
449 517
450 479
450 500
450 518
451 478
451 503
451 519
452 481
452 502
452 520
453 480
453 505
453 521
454 483
454 504
454 522
455 482
455 507
455 523
456 473
456 506
456 524
457 472
457 488
457 508
457 513
457 514
458 464
458 466
458 488
458 489
458 515
458 516
459 465
459 489
459 490
459 509
459 517
459 518
460 467
460 469
460 490
460 491
460 510
460 519
460 520
461 468
461 471
461 491
461 492
461 511
461 521
461 522
462 463
462 470
462 492
462 512
462 523
462 524
463 474
463 512
463 513
464 473
464 493
464 514
465 475
465 493
465 509
465 516
466 478
466 494
466 517
467 477
467 518
468 479
468 511
468 520
469 482
469 495
469 510
469 521
470 481
470 522
471 484
471 495
471 523
472 483
472 508
472 524
473 484
473 497
473 507
473 514
474 475
474 496
474 498
474 513
475 497
475 499
475 516
476 477
476 498
476 500
476 515
477 499
477 501
477 518
478 479
478 500
478 502
478 517
479 501
479 503
479 520
480 481
480 502
480 504
480 519
481 503
481 505
481 522
482 483
482 504
482 506
482 521
483 505
483 507
483 524
484 496
484 506
484 523
485 488
485 489
486 489
486 490
487 491
487 492
488 514
488 515
489 516
489 517
490 518
490 519
491 520
491 521
492 522
492 523
494 509
495 511
496 512
496 514
497 513
498 516
499 509
499 515
500 518
501 517
502 520
503 511
503 519
504 510
504 522
505 521
506 524
507 508
507 523
508 512
508 514
509 518
510 511
510 519
511 522
512 523
