p cnf 2100 14095
1 2 3 4 0
-1 -2 0
-1 -3 0
-1 -4 0
-2 -3 0
-2 -4 0
-3 -4 0
5 6 7 8 0
-5 -6 0
-5 -7 0
-5 -8 0
-6 -7 0
-6 -8 0
-7 -8 0
9 10 11 12 0
-9 -10 0
-9 -11 0
-9 -12 0
-10 -11 0
-10 -12 0
-11 -12 0
13 14 15 16 0
-13 -14 0
-13 -15 0
-13 -16 0
-14 -15 0
-14 -16 0
-15 -16 0
17 18 19 20 0
-17 -18 0
-17 -19 0
-17 -20 0
-18 -19 0
-18 -20 0
-19 -20 0
21 22 23 24 0
-21 -22 0
-21 -23 0
-21 -24 0
-22 -23 0
-22 -24 0
-23 -24 0
25 26 27 28 0
-25 -26 0
-25 -27 0
-25 -28 0
-26 -27 0
-26 -28 0
-27 -28 0
29 30 31 32 0
-29 -30 0
-29 -31 0
-29 -32 0
-30 -31 0
-30 -32 0
-31 -32 0
33 34 35 36 0
-33 -34 0
-33 -35 0
-33 -36 0
-34 -35 0
-34 -36 0
-35 -36 0
37 38 39 40 0
-37 -38 0
-37 -39 0
-37 -40 0
-38 -39 0
-38 -40 0
-39 -40 0
41 42 43 44 0
-41 -42 0
-41 -43 0
-41 -44 0
-42 -43 0
-42 -44 0
-43 -44 0
45 46 47 48 0
-45 -46 0
-45 -47 0
-45 -48 0
-46 -47 0
-46 -48 0
-47 -48 0
49 50 51 52 0
-49 -50 0
-49 -51 0
-49 -52 0
-50 -51 0
-50 -52 0
-51 -52 0
53 54 55 56 0
-53 -54 0
-53 -55 0
-53 -56 0
-54 -55 0
-54 -56 0
-55 -56 0
57 58 59 60 0
-57 -58 0
-57 -59 0
-57 -60 0
-58 -59 0
-58 -60 0
-59 -60 0
61 62 63 64 0
-61 -62 0
-61 -63 0
-61 -64 0
-62 -63 0
-62 -64 0
-63 -64 0
65 66 67 68 0
-65 -66 0
-65 -67 0
-65 -68 0
-66 -67 0
-66 -68 0
-67 -68 0
69 70 71 72 0
-69 -70 0
-69 -71 0
-69 -72 0
-70 -71 0
-70 -72 0
-71 -72 0
73 74 75 76 0
-73 -74 0
-73 -75 0
-73 -76 0
-74 -75 0
-74 -76 0
-75 -76 0
77 78 79 80 0
-77 -78 0
-77 -79 0
-77 -80 0
-78 -79 0
-78 -80 0
-79 -80 0
81 82 83 84 0
-81 -82 0
-81 -83 0
-81 -84 0
-82 -83 0
-82 -84 0
-83 -84 0
85 86 87 88 0
-85 -86 0
-85 -87 0
-85 -88 0
-86 -87 0
-86 -88 0
-87 -88 0
89 90 91 92 0
-89 -90 0
-89 -91 0
-89 -92 0
-90 -91 0
-90 -92 0
-91 -92 0
93 94 95 96 0
-93 -94 0
-93 -95 0
-93 -96 0
-94 -95 0
-94 -96 0
-95 -96 0
97 98 99 100 0
-97 -98 0
-97 -99 0
-97 -100 0
-98 -99 0
-98 -100 0
-99 -100 0
101 102 103 104 0
-101 -102 0
-101 -103 0
-101 -104 0
-102 -103 0
-102 -104 0
-103 -104 0
105 106 107 108 0
-105 -106 0
-105 -107 0
-105 -108 0
-106 -107 0
-106 -108 0
-107 -108 0
109 110 111 112 0
-109 -110 0
-109 -111 0
-109 -112 0
-110 -111 0
-110 -112 0
-111 -112 0
113 114 115 116 0
-113 -114 0
-113 -115 0
-113 -116 0
-114 -115 0
-114 -116 0
-115 -116 0
117 118 119 120 0
-117 -118 0
-117 -119 0
-117 -120 0
-118 -119 0
-118 -120 0
-119 -120 0
121 122 123 124 0
-121 -122 0
-121 -123 0
-121 -124 0
-122 -123 0
-122 -124 0
-123 -124 0
125 126 127 128 0
-125 -126 0
-125 -127 0
-125 -128 0
-126 -127 0
-126 -128 0
-127 -128 0
129 130 131 132 0
-129 -130 0
-129 -131 0
-129 -132 0
-130 -131 0
-130 -132 0
-131 -132 0
133 134 135 136 0
-133 -134 0
-133 -135 0
-133 -136 0
-134 -135 0
-134 -136 0
-135 -136 0
137 138 139 140 0
-137 -138 0
-137 -139 0
-137 -140 0
-138 -139 0
-138 -140 0
-139 -140 0
141 142 143 144 0
-141 -142 0
-141 -143 0
-141 -144 0
-142 -143 0
-142 -144 0
-143 -144 0
145 146 147 148 0
-145 -146 0
-145 -147 0
-145 -148 0
-146 -147 0
-146 -148 0
-147 -148 0
149 150 151 152 0
-149 -150 0
-149 -151 0
-149 -152 0
-150 -151 0
-150 -152 0
-151 -152 0
153 154 155 156 0
-153 -154 0
-153 -155 0
-153 -156 0
-154 -155 0
-154 -156 0
-155 -156 0
157 158 159 160 0
-157 -158 0
-157 -159 0
-157 -160 0
-158 -159 0
-158 -160 0
-159 -160 0
161 162 163 164 0
-161 -162 0
-161 -163 0
-161 -164 0
-162 -163 0
-162 -164 0
-163 -164 0
165 166 167 168 0
-165 -166 0
-165 -167 0
-165 -168 0
-166 -167 0
-166 -168 0
-167 -168 0
169 170 171 172 0
-169 -170 0
-169 -171 0
-169 -172 0
-170 -171 0
-170 -172 0
-171 -172 0
173 174 175 176 0
-173 -174 0
-173 -175 0
-173 -176 0
-174 -175 0
-174 -176 0
-175 -176 0
177 178 179 180 0
-177 -178 0
-177 -179 0
-177 -180 0
-178 -179 0
-178 -180 0
-179 -180 0
181 182 183 184 0
-181 -182 0
-181 -183 0
-181 -184 0
-182 -183 0
-182 -184 0
-183 -184 0
185 186 187 188 0
-185 -186 0
-185 -187 0
-185 -188 0
-186 -187 0
-186 -188 0
-187 -188 0
189 190 191 192 0
-189 -190 0
-189 -191 0
-189 -192 0
-190 -191 0
-190 -192 0
-191 -192 0
193 194 195 196 0
-193 -194 0
-193 -195 0
-193 -196 0
-194 -195 0
-194 -196 0
-195 -196 0
197 198 199 200 0
-197 -198 0
-197 -199 0
-197 -200 0
-198 -199 0
-198 -200 0
-199 -200 0
201 202 203 204 0
-201 -202 0
-201 -203 0
-201 -204 0
-202 -203 0
-202 -204 0
-203 -204 0
205 206 207 208 0
-205 -206 0
-205 -207 0
-205 -208 0
-206 -207 0
-206 -208 0
-207 -208 0
209 210 211 212 0
-209 -210 0
-209 -211 0
-209 -212 0
-210 -211 0
-210 -212 0
-211 -212 0
213 214 215 216 0
-213 -214 0
-213 -215 0
-213 -216 0
-214 -215 0
-214 -216 0
-215 -216 0
217 218 219 220 0
-217 -218 0
-217 -219 0
-217 -220 0
-218 -219 0
-218 -220 0
-219 -220 0
221 222 223 224 0
-221 -222 0
-221 -223 0
-221 -224 0
-222 -223 0
-222 -224 0
-223 -224 0
225 226 227 228 0
-225 -226 0
-225 -227 0
-225 -228 0
-226 -227 0
-226 -228 0
-227 -228 0
229 230 231 232 0
-229 -230 0
-229 -231 0
-229 -232 0
-230 -231 0
-230 -232 0
-231 -232 0
233 234 235 236 0
-233 -234 0
-233 -235 0
-233 -236 0
-234 -235 0
-234 -236 0
-235 -236 0
237 238 239 240 0
-237 -238 0
-237 -239 0
-237 -240 0
-238 -239 0
-238 -240 0
-239 -240 0
241 242 243 244 0
-241 -242 0
-241 -243 0
-241 -244 0
-242 -243 0
-242 -244 0
-243 -244 0
245 246 247 248 0
-245 -246 0
-245 -247 0
-245 -248 0
-246 -247 0
-246 -248 0
-247 -248 0
249 250 251 252 0
-249 -250 0
-249 -251 0
-249 -252 0
-250 -251 0
-250 -252 0
-251 -252 0
253 254 255 256 0
-253 -254 0
-253 -255 0
-253 -256 0
-254 -255 0
-254 -256 0
-255 -256 0
257 258 259 260 0
-257 -258 0
-257 -259 0
-257 -260 0
-258 -259 0
-258 -260 0
-259 -260 0
261 262 263 264 0
-261 -262 0
-261 -263 0
-261 -264 0
-262 -263 0
-262 -264 0
-263 -264 0
265 266 267 268 0
-265 -266 0
-265 -267 0
-265 -268 0
-266 -267 0
-266 -268 0
-267 -268 0
269 270 271 272 0
-269 -270 0
-269 -271 0
-269 -272 0
-270 -271 0
-270 -272 0
-271 -272 0
273 274 275 276 0
-273 -274 0
-273 -275 0
-273 -276 0
-274 -275 0
-274 -276 0
-275 -276 0
277 278 279 280 0
-277 -278 0
-277 -279 0
-277 -280 0
-278 -279 0
-278 -280 0
-279 -280 0
281 282 283 284 0
-281 -282 0
-281 -283 0
-281 -284 0
-282 -283 0
-282 -284 0
-283 -284 0
285 286 287 288 0
-285 -286 0
-285 -287 0
-285 -288 0
-286 -287 0
-286 -288 0
-287 -288 0
289 290 291 292 0
-289 -290 0
-289 -291 0
-289 -292 0
-290 -291 0
-290 -292 0
-291 -292 0
293 294 295 296 0
-293 -294 0
-293 -295 0
-293 -296 0
-294 -295 0
-294 -296 0
-295 -296 0
297 298 299 300 0
-297 -298 0
-297 -299 0
-297 -300 0
-298 -299 0
-298 -300 0
-299 -300 0
301 302 303 304 0
-301 -302 0
-301 -303 0
-301 -304 0
-302 -303 0
-302 -304 0
-303 -304 0
305 306 307 308 0
-305 -306 0
-305 -307 0
-305 -308 0
-306 -307 0
-306 -308 0
-307 -308 0
309 310 311 312 0
-309 -310 0
-309 -311 0
-309 -312 0
-310 -311 0
-310 -312 0
-311 -312 0
313 314 315 316 0
-313 -314 0
-313 -315 0
-313 -316 0
-314 -315 0
-314 -316 0
-315 -316 0
317 318 319 320 0
-317 -318 0
-317 -319 0
-317 -320 0
-318 -319 0
-318 -320 0
-319 -320 0
321 322 323 324 0
-321 -322 0
-321 -323 0
-321 -324 0
-322 -323 0
-322 -324 0
-323 -324 0
325 326 327 328 0
-325 -326 0
-325 -327 0
-325 -328 0
-326 -327 0
-326 -328 0
-327 -328 0
329 330 331 332 0
-329 -330 0
-329 -331 0
-329 -332 0
-330 -331 0
-330 -332 0
-331 -332 0
333 334 335 336 0
-333 -334 0
-333 -335 0
-333 -336 0
-334 -335 0
-334 -336 0
-335 -336 0
337 338 339 340 0
-337 -338 0
-337 -339 0
-337 -340 0
-338 -339 0
-338 -340 0
-339 -340 0
341 342 343 344 0
-341 -342 0
-341 -343 0
-341 -344 0
-342 -343 0
-342 -344 0
-343 -344 0
345 346 347 348 0
-345 -346 0
-345 -347 0
-345 -348 0
-346 -347 0
-346 -348 0
-347 -348 0
349 350 351 352 0
-349 -350 0
-349 -351 0
-349 -352 0
-350 -351 0
-350 -352 0
-351 -352 0
353 354 355 356 0
-353 -354 0
-353 -355 0
-353 -356 0
-354 -355 0
-354 -356 0
-355 -356 0
357 358 359 360 0
-357 -358 0
-357 -359 0
-357 -360 0
-358 -359 0
-358 -360 0
-359 -360 0
361 362 363 364 0
-361 -362 0
-361 -363 0
-361 -364 0
-362 -363 0
-362 -364 0
-363 -364 0
365 366 367 368 0
-365 -366 0
-365 -367 0
-365 -368 0
-366 -367 0
-366 -368 0
-367 -368 0
369 370 371 372 0
-369 -370 0
-369 -371 0
-369 -372 0
-370 -371 0
-370 -372 0
-371 -372 0
373 374 375 376 0
-373 -374 0
-373 -375 0
-373 -376 0
-374 -375 0
-374 -376 0
-375 -376 0
377 378 379 380 0
-377 -378 0
-377 -379 0
-377 -380 0
-378 -379 0
-378 -380 0
-379 -380 0
381 382 383 384 0
-381 -382 0
-381 -383 0
-381 -384 0
-382 -383 0
-382 -384 0
-383 -384 0
385 386 387 388 0
-385 -386 0
-385 -387 0
-385 -388 0
-386 -387 0
-386 -388 0
-387 -388 0
389 390 391 392 0
-389 -390 0
-389 -391 0
-389 -392 0
-390 -391 0
-390 -392 0
-391 -392 0
393 394 395 396 0
-393 -394 0
-393 -395 0
-393 -396 0
-394 -395 0
-394 -396 0
-395 -396 0
397 398 399 400 0
-397 -398 0
-397 -399 0
-397 -400 0
-398 -399 0
-398 -400 0
-399 -400 0
401 402 403 404 0
-401 -402 0
-401 -403 0
-401 -404 0
-402 -403 0
-402 -404 0
-403 -404 0
405 406 407 408 0
-405 -406 0
-405 -407 0
-405 -408 0
-406 -407 0
-406 -408 0
-407 -408 0
409 410 411 412 0
-409 -410 0
-409 -411 0
-409 -412 0
-410 -411 0
-410 -412 0
-411 -412 0
413 414 415 416 0
-413 -414 0
-413 -415 0
-413 -416 0
-414 -415 0
-414 -416 0
-415 -416 0
417 418 419 420 0
-417 -418 0
-417 -419 0
-417 -420 0
-418 -419 0
-418 -420 0
-419 -420 0
421 422 423 424 0
-421 -422 0
-421 -423 0
-421 -424 0
-422 -423 0
-422 -424 0
-423 -424 0
425 426 427 428 0
-425 -426 0
-425 -427 0
-425 -428 0
-426 -427 0
-426 -428 0
-427 -428 0
429 430 431 432 0
-429 -430 0
-429 -431 0
-429 -432 0
-430 -431 0
-430 -432 0
-431 -432 0
433 434 435 436 0
-433 -434 0
-433 -435 0
-433 -436 0
-434 -435 0
-434 -436 0
-435 -436 0
437 438 439 440 0
-437 -438 0
-437 -439 0
-437 -440 0
-438 -439 0
-438 -440 0
-439 -440 0
441 442 443 444 0
-441 -442 0
-441 -443 0
-441 -444 0
-442 -443 0
-442 -444 0
-443 -444 0
445 446 447 448 0
-445 -446 0
-445 -447 0
-445 -448 0
-446 -447 0
-446 -448 0
-447 -448 0
449 450 451 452 0
-449 -450 0
-449 -451 0
-449 -452 0
-450 -451 0
-450 -452 0
-451 -452 0
453 454 455 456 0
-453 -454 0
-453 -455 0
-453 -456 0
-454 -455 0
-454 -456 0
-455 -456 0
457 458 459 460 0
-457 -458 0
-457 -459 0
-457 -460 0
-458 -459 0
-458 -460 0
-459 -460 0
461 462 463 464 0
-461 -462 0
-461 -463 0
-461 -464 0
-462 -463 0
-462 -464 0
-463 -464 0
465 466 467 468 0
-465 -466 0
-465 -467 0
-465 -468 0
-466 -467 0
-466 -468 0
-467 -468 0
469 470 471 472 0
-469 -470 0
-469 -471 0
-469 -472 0
-470 -471 0
-470 -472 0
-471 -472 0
473 474 475 476 0
-473 -474 0
-473 -475 0
-473 -476 0
-474 -475 0
-474 -476 0
-475 -476 0
477 478 479 480 0
-477 -478 0
-477 -479 0
-477 -480 0
-478 -479 0
-478 -480 0
-479 -480 0
481 482 483 484 0
-481 -482 0
-481 -483 0
-481 -484 0
-482 -483 0
-482 -484 0
-483 -484 0
485 486 487 488 0
-485 -486 0
-485 -487 0
-485 -488 0
-486 -487 0
-486 -488 0
-487 -488 0
489 490 491 492 0
-489 -490 0
-489 -491 0
-489 -492 0
-490 -491 0
-490 -492 0
-491 -492 0
493 494 495 496 0
-493 -494 0
-493 -495 0
-493 -496 0
-494 -495 0
-494 -496 0
-495 -496 0
497 498 499 500 0
-497 -498 0
-497 -499 0
-497 -500 0
-498 -499 0
-498 -500 0
-499 -500 0
501 502 503 504 0
-501 -502 0
-501 -503 0
-501 -504 0
-502 -503 0
-502 -504 0
-503 -504 0
505 506 507 508 0
-505 -506 0
-505 -507 0
-505 -508 0
-506 -507 0
-506 -508 0
-507 -508 0
509 510 511 512 0
-509 -510 0
-509 -511 0
-509 -512 0
-510 -511 0
-510 -512 0
-511 -512 0
513 514 515 516 0
-513 -514 0
-513 -515 0
-513 -516 0
-514 -515 0
-514 -516 0
-515 -516 0
517 518 519 520 0
-517 -518 0
-517 -519 0
-517 -520 0
-518 -519 0
-518 -520 0
-519 -520 0
521 522 523 524 0
-521 -522 0
-521 -523 0
-521 -524 0
-522 -523 0
-522 -524 0
-523 -524 0
525 526 527 528 0
-525 -526 0
-525 -527 0
-525 -528 0
-526 -527 0
-526 -528 0
-527 -528 0
529 530 531 532 0
-529 -530 0
-529 -531 0
-529 -532 0
-530 -531 0
-530 -532 0
-531 -532 0
533 534 535 536 0
-533 -534 0
-533 -535 0
-533 -536 0
-534 -535 0
-534 -536 0
-535 -536 0
537 538 539 540 0
-537 -538 0
-537 -539 0
-537 -540 0
-538 -539 0
-538 -540 0
-539 -540 0
541 542 543 544 0
-541 -542 0
-541 -543 0
-541 -544 0
-542 -543 0
-542 -544 0
-543 -544 0
545 546 547 548 0
-545 -546 0
-545 -547 0
-545 -548 0
-546 -547 0
-546 -548 0
-547 -548 0
549 550 551 552 0
-549 -550 0
-549 -551 0
-549 -552 0
-550 -551 0
-550 -552 0
-551 -552 0
553 554 555 556 0
-553 -554 0
-553 -555 0
-553 -556 0
-554 -555 0
-554 -556 0
-555 -556 0
557 558 559 560 0
-557 -558 0
-557 -559 0
-557 -560 0
-558 -559 0
-558 -560 0
-559 -560 0
561 562 563 564 0
-561 -562 0
-561 -563 0
-561 -564 0
-562 -563 0
-562 -564 0
-563 -564 0
565 566 567 568 0
-565 -566 0
-565 -567 0
-565 -568 0
-566 -567 0
-566 -568 0
-567 -568 0
569 570 571 572 0
-569 -570 0
-569 -571 0
-569 -572 0
-570 -571 0
-570 -572 0
-571 -572 0
573 574 575 576 0
-573 -574 0
-573 -575 0
-573 -576 0
-574 -575 0
-574 -576 0
-575 -576 0
577 578 579 580 0
-577 -578 0
-577 -579 0
-577 -580 0
-578 -579 0
-578 -580 0
-579 -580 0
581 582 583 584 0
-581 -582 0
-581 -583 0
-581 -584 0
-582 -583 0
-582 -584 0
-583 -584 0
585 586 587 588 0
-585 -586 0
-585 -587 0
-585 -588 0
-586 -587 0
-586 -588 0
-587 -588 0
589 590 591 592 0
-589 -590 0
-589 -591 0
-589 -592 0
-590 -591 0
-590 -592 0
-591 -592 0
593 594 595 596 0
-593 -594 0
-593 -595 0
-593 -596 0
-594 -595 0
-594 -596 0
-595 -596 0
597 598 599 600 0
-597 -598 0
-597 -599 0
-597 -600 0
-598 -599 0
-598 -600 0
-599 -600 0
601 602 603 604 0
-601 -602 0
-601 -603 0
-601 -604 0
-602 -603 0
-602 -604 0
-603 -604 0
605 606 607 608 0
-605 -606 0
-605 -607 0
-605 -608 0
-606 -607 0
-606 -608 0
-607 -608 0
609 610 611 612 0
-609 -610 0
-609 -611 0
-609 -612 0
-610 -611 0
-610 -612 0
-611 -612 0
613 614 615 616 0
-613 -614 0
-613 -615 0
-613 -616 0
-614 -615 0
-614 -616 0
-615 -616 0
617 618 619 620 0
-617 -618 0
-617 -619 0
-617 -620 0
-618 -619 0
-618 -620 0
-619 -620 0
621 622 623 624 0
-621 -622 0
-621 -623 0
-621 -624 0
-622 -623 0
-622 -624 0
-623 -624 0
625 626 627 628 0
-625 -626 0
-625 -627 0
-625 -628 0
-626 -627 0
-626 -628 0
-627 -628 0
629 630 631 632 0
-629 -630 0
-629 -631 0
-629 -632 0
-630 -631 0
-630 -632 0
-631 -632 0
633 634 635 636 0
-633 -634 0
-633 -635 0
-633 -636 0
-634 -635 0
-634 -636 0
-635 -636 0
637 638 639 640 0
-637 -638 0
-637 -639 0
-637 -640 0
-638 -639 0
-638 -640 0
-639 -640 0
641 642 643 644 0
-641 -642 0
-641 -643 0
-641 -644 0
-642 -643 0
-642 -644 0
-643 -644 0
645 646 647 648 0
-645 -646 0
-645 -647 0
-645 -648 0
-646 -647 0
-646 -648 0
-647 -648 0
649 650 651 652 0
-649 -650 0
-649 -651 0
-649 -652 0
-650 -651 0
-650 -652 0
-651 -652 0
653 654 655 656 0
-653 -654 0
-653 -655 0
-653 -656 0
-654 -655 0
-654 -656 0
-655 -656 0
657 658 659 660 0
-657 -658 0
-657 -659 0
-657 -660 0
-658 -659 0
-658 -660 0
-659 -660 0
661 662 663 664 0
-661 -662 0
-661 -663 0
-661 -664 0
-662 -663 0
-662 -664 0
-663 -664 0
665 666 667 668 0
-665 -666 0
-665 -667 0
-665 -668 0
-666 -667 0
-666 -668 0
-667 -668 0
669 670 671 672 0
-669 -670 0
-669 -671 0
-669 -672 0
-670 -671 0
-670 -672 0
-671 -672 0
673 674 675 676 0
-673 -674 0
-673 -675 0
-673 -676 0
-674 -675 0
-674 -676 0
-675 -676 0
677 678 679 680 0
-677 -678 0
-677 -679 0
-677 -680 0
-678 -679 0
-678 -680 0
-679 -680 0
681 682 683 684 0
-681 -682 0
-681 -683 0
-681 -684 0
-682 -683 0
-682 -684 0
-683 -684 0
685 686 687 688 0
-685 -686 0
-685 -687 0
-685 -688 0
-686 -687 0
-686 -688 0
-687 -688 0
689 690 691 692 0
-689 -690 0
-689 -691 0
-689 -692 0
-690 -691 0
-690 -692 0
-691 -692 0
693 694 695 696 0
-693 -694 0
-693 -695 0
-693 -696 0
-694 -695 0
-694 -696 0
-695 -696 0
697 698 699 700 0
-697 -698 0
-697 -699 0
-697 -700 0
-698 -699 0
-698 -700 0
-699 -700 0
701 702 703 704 0
-701 -702 0
-701 -703 0
-701 -704 0
-702 -703 0
-702 -704 0
-703 -704 0
705 706 707 708 0
-705 -706 0
-705 -707 0
-705 -708 0
-706 -707 0
-706 -708 0
-707 -708 0
709 710 711 712 0
-709 -710 0
-709 -711 0
-709 -712 0
-710 -711 0
-710 -712 0
-711 -712 0
713 714 715 716 0
-713 -714 0
-713 -715 0
-713 -716 0
-714 -715 0
-714 -716 0
-715 -716 0
717 718 719 720 0
-717 -718 0
-717 -719 0
-717 -720 0
-718 -719 0
-718 -720 0
-719 -720 0
721 722 723 724 0
-721 -722 0
-721 -723 0
-721 -724 0
-722 -723 0
-722 -724 0
-723 -724 0
725 726 727 728 0
-725 -726 0
-725 -727 0
-725 -728 0
-726 -727 0
-726 -728 0
-727 -728 0
729 730 731 732 0
-729 -730 0
-729 -731 0
-729 -732 0
-730 -731 0
-730 -732 0
-731 -732 0
733 734 735 736 0
-733 -734 0
-733 -735 0
-733 -736 0
-734 -735 0
-734 -736 0
-735 -736 0
737 738 739 740 0
-737 -738 0
-737 -739 0
-737 -740 0
-738 -739 0
-738 -740 0
-739 -740 0
741 742 743 744 0
-741 -742 0
-741 -743 0
-741 -744 0
-742 -743 0
-742 -744 0
-743 -744 0
745 746 747 748 0
-745 -746 0
-745 -747 0
-745 -748 0
-746 -747 0
-746 -748 0
-747 -748 0
749 750 751 752 0
-749 -750 0
-749 -751 0
-749 -752 0
-750 -751 0
-750 -752 0
-751 -752 0
753 754 755 756 0
-753 -754 0
-753 -755 0
-753 -756 0
-754 -755 0
-754 -756 0
-755 -756 0
757 758 759 760 0
-757 -758 0
-757 -759 0
-757 -760 0
-758 -759 0
-758 -760 0
-759 -760 0
761 762 763 764 0
-761 -762 0
-761 -763 0
-761 -764 0
-762 -763 0
-762 -764 0
-763 -764 0
765 766 767 768 0
-765 -766 0
-765 -767 0
-765 -768 0
-766 -767 0
-766 -768 0
-767 -768 0
769 770 771 772 0
-769 -770 0
-769 -771 0
-769 -772 0
-770 -771 0
-770 -772 0
-771 -772 0
773 774 775 776 0
-773 -774 0
-773 -775 0
-773 -776 0
-774 -775 0
-774 -776 0
-775 -776 0
777 778 779 780 0
-777 -778 0
-777 -779 0
-777 -780 0
-778 -779 0
-778 -780 0
-779 -780 0
781 782 783 784 0
-781 -782 0
-781 -783 0
-781 -784 0
-782 -783 0
-782 -784 0
-783 -784 0
785 786 787 788 0
-785 -786 0
-785 -787 0
-785 -788 0
-786 -787 0
-786 -788 0
-787 -788 0
789 790 791 792 0
-789 -790 0
-789 -791 0
-789 -792 0
-790 -791 0
-790 -792 0
-791 -792 0
793 794 795 796 0
-793 -794 0
-793 -795 0
-793 -796 0
-794 -795 0
-794 -796 0
-795 -796 0
797 798 799 800 0
-797 -798 0
-797 -799 0
-797 -800 0
-798 -799 0
-798 -800 0
-799 -800 0
801 802 803 804 0
-801 -802 0
-801 -803 0
-801 -804 0
-802 -803 0
-802 -804 0
-803 -804 0
805 806 807 808 0
-805 -806 0
-805 -807 0
-805 -808 0
-806 -807 0
-806 -808 0
-807 -808 0
809 810 811 812 0
-809 -810 0
-809 -811 0
-809 -812 0
-810 -811 0
-810 -812 0
-811 -812 0
813 814 815 816 0
-813 -814 0
-813 -815 0
-813 -816 0
-814 -815 0
-814 -816 0
-815 -816 0
817 818 819 820 0
-817 -818 0
-817 -819 0
-817 -820 0
-818 -819 0
-818 -820 0
-819 -820 0
821 822 823 824 0
-821 -822 0
-821 -823 0
-821 -824 0
-822 -823 0
-822 -824 0
-823 -824 0
825 826 827 828 0
-825 -826 0
-825 -827 0
-825 -828 0
-826 -827 0
-826 -828 0
-827 -828 0
829 830 831 832 0
-829 -830 0
-829 -831 0
-829 -832 0
-830 -831 0
-830 -832 0
-831 -832 0
833 834 835 836 0
-833 -834 0
-833 -835 0
-833 -836 0
-834 -835 0
-834 -836 0
-835 -836 0
837 838 839 840 0
-837 -838 0
-837 -839 0
-837 -840 0
-838 -839 0
-838 -840 0
-839 -840 0
841 842 843 844 0
-841 -842 0
-841 -843 0
-841 -844 0
-842 -843 0
-842 -844 0
-843 -844 0
845 846 847 848 0
-845 -846 0
-845 -847 0
-845 -848 0
-846 -847 0
-846 -848 0
-847 -848 0
849 850 851 852 0
-849 -850 0
-849 -851 0
-849 -852 0
-850 -851 0
-850 -852 0
-851 -852 0
853 854 855 856 0
-853 -854 0
-853 -855 0
-853 -856 0
-854 -855 0
-854 -856 0
-855 -856 0
857 858 859 860 0
-857 -858 0
-857 -859 0
-857 -860 0
-858 -859 0
-858 -860 0
-859 -860 0
861 862 863 864 0
-861 -862 0
-861 -863 0
-861 -864 0
-862 -863 0
-862 -864 0
-863 -864 0
865 866 867 868 0
-865 -866 0
-865 -867 0
-865 -868 0
-866 -867 0
-866 -868 0
-867 -868 0
869 870 871 872 0
-869 -870 0
-869 -871 0
-869 -872 0
-870 -871 0
-870 -872 0
-871 -872 0
873 874 875 876 0
-873 -874 0
-873 -875 0
-873 -876 0
-874 -875 0
-874 -876 0
-875 -876 0
877 878 879 880 0
-877 -878 0
-877 -879 0
-877 -880 0
-878 -879 0
-878 -880 0
-879 -880 0
881 882 883 884 0
-881 -882 0
-881 -883 0
-881 -884 0
-882 -883 0
-882 -884 0
-883 -884 0
885 886 887 888 0
-885 -886 0
-885 -887 0
-885 -888 0
-886 -887 0
-886 -888 0
-887 -888 0
889 890 891 892 0
-889 -890 0
-889 -891 0
-889 -892 0
-890 -891 0
-890 -892 0
-891 -892 0
893 894 895 896 0
-893 -894 0
-893 -895 0
-893 -896 0
-894 -895 0
-894 -896 0
-895 -896 0
897 898 899 900 0
-897 -898 0
-897 -899 0
-897 -900 0
-898 -899 0
-898 -900 0
-899 -900 0
901 902 903 904 0
-901 -902 0
-901 -903 0
-901 -904 0
-902 -903 0
-902 -904 0
-903 -904 0
905 906 907 908 0
-905 -906 0
-905 -907 0
-905 -908 0
-906 -907 0
-906 -908 0
-907 -908 0
909 910 911 912 0
-909 -910 0
-909 -911 0
-909 -912 0
-910 -911 0
-910 -912 0
-911 -912 0
913 914 915 916 0
-913 -914 0
-913 -915 0
-913 -916 0
-914 -915 0
-914 -916 0
-915 -916 0
917 918 919 920 0
-917 -918 0
-917 -919 0
-917 -920 0
-918 -919 0
-918 -920 0
-919 -920 0
921 922 923 924 0
-921 -922 0
-921 -923 0
-921 -924 0
-922 -923 0
-922 -924 0
-923 -924 0
925 926 927 928 0
-925 -926 0
-925 -927 0
-925 -928 0
-926 -927 0
-926 -928 0
-927 -928 0
929 930 931 932 0
-929 -930 0
-929 -931 0
-929 -932 0
-930 -931 0
-930 -932 0
-931 -932 0
933 934 935 936 0
-933 -934 0
-933 -935 0
-933 -936 0
-934 -935 0
-934 -936 0
-935 -936 0
937 938 939 940 0
-937 -938 0
-937 -939 0
-937 -940 0
-938 -939 0
-938 -940 0
-939 -940 0
941 942 943 944 0
-941 -942 0
-941 -943 0
-941 -944 0
-942 -943 0
-942 -944 0
-943 -944 0
945 946 947 948 0
-945 -946 0
-945 -947 0
-945 -948 0
-946 -947 0
-946 -948 0
-947 -948 0
949 950 951 952 0
-949 -950 0
-949 -951 0
-949 -952 0
-950 -951 0
-950 -952 0
-951 -952 0
953 954 955 956 0
-953 -954 0
-953 -955 0
-953 -956 0
-954 -955 0
-954 -956 0
-955 -956 0
957 958 959 960 0
-957 -958 0
-957 -959 0
-957 -960 0
-958 -959 0
-958 -960 0
-959 -960 0
961 962 963 964 0
-961 -962 0
-961 -963 0
-961 -964 0
-962 -963 0
-962 -964 0
-963 -964 0
965 966 967 968 0
-965 -966 0
-965 -967 0
-965 -968 0
-966 -967 0
-966 -968 0
-967 -968 0
969 970 971 972 0
-969 -970 0
-969 -971 0
-969 -972 0
-970 -971 0
-970 -972 0
-971 -972 0
973 974 975 976 0
-973 -974 0
-973 -975 0
-973 -976 0
-974 -975 0
-974 -976 0
-975 -976 0
977 978 979 980 0
-977 -978 0
-977 -979 0
-977 -980 0
-978 -979 0
-978 -980 0
-979 -980 0
981 982 983 984 0
-981 -982 0
-981 -983 0
-981 -984 0
-982 -983 0
-982 -984 0
-983 -984 0
985 986 987 988 0
-985 -986 0
-985 -987 0
-985 -988 0
-986 -987 0
-986 -988 0
-987 -988 0
989 990 991 992 0
-989 -990 0
-989 -991 0
-989 -992 0
-990 -991 0
-990 -992 0
-991 -992 0
993 994 995 996 0
-993 -994 0
-993 -995 0
-993 -996 0
-994 -995 0
-994 -996 0
-995 -996 0
997 998 999 1000 0
-997 -998 0
-997 -999 0
-997 -1000 0
-998 -999 0
-998 -1000 0
-999 -1000 0
1001 1002 1003 1004 0
-1001 -1002 0
-1001 -1003 0
-1001 -1004 0
-1002 -1003 0
-1002 -1004 0
-1003 -1004 0
1005 1006 1007 1008 0
-1005 -1006 0
-1005 -1007 0
-1005 -1008 0
-1006 -1007 0
-1006 -1008 0
-1007 -1008 0
1009 1010 1011 1012 0
-1009 -1010 0
-1009 -1011 0
-1009 -1012 0
-1010 -1011 0
-1010 -1012 0
-1011 -1012 0
1013 1014 1015 1016 0
-1013 -1014 0
-1013 -1015 0
-1013 -1016 0
-1014 -1015 0
-1014 -1016 0
-1015 -1016 0
1017 1018 1019 1020 0
-1017 -1018 0
-1017 -1019 0
-1017 -1020 0
-1018 -1019 0
-1018 -1020 0
-1019 -1020 0
1021 1022 1023 1024 0
-1021 -1022 0
-1021 -1023 0
-1021 -1024 0
-1022 -1023 0
-1022 -1024 0
-1023 -1024 0
1025 1026 1027 1028 0
-1025 -1026 0
-1025 -1027 0
-1025 -1028 0
-1026 -1027 0
-1026 -1028 0
-1027 -1028 0
1029 1030 1031 1032 0
-1029 -1030 0
-1029 -1031 0
-1029 -1032 0
-1030 -1031 0
-1030 -1032 0
-1031 -1032 0
1033 1034 1035 1036 0
-1033 -1034 0
-1033 -1035 0
-1033 -1036 0
-1034 -1035 0
-1034 -1036 0
-1035 -1036 0
1037 1038 1039 1040 0
-1037 -1038 0
-1037 -1039 0
-1037 -1040 0
-1038 -1039 0
-1038 -1040 0
-1039 -1040 0
1041 1042 1043 1044 0
-1041 -1042 0
-1041 -1043 0
-1041 -1044 0
-1042 -1043 0
-1042 -1044 0
-1043 -1044 0
1045 1046 1047 1048 0
-1045 -1046 0
-1045 -1047 0
-1045 -1048 0
-1046 -1047 0
-1046 -1048 0
-1047 -1048 0
1049 1050 1051 1052 0
-1049 -1050 0
-1049 -1051 0
-1049 -1052 0
-1050 -1051 0
-1050 -1052 0
-1051 -1052 0
1053 1054 1055 1056 0
-1053 -1054 0
-1053 -1055 0
-1053 -1056 0
-1054 -1055 0
-1054 -1056 0
-1055 -1056 0
1057 1058 1059 1060 0
-1057 -1058 0
-1057 -1059 0
-1057 -1060 0
-1058 -1059 0
-1058 -1060 0
-1059 -1060 0
1061 1062 1063 1064 0
-1061 -1062 0
-1061 -1063 0
-1061 -1064 0
-1062 -1063 0
-1062 -1064 0
-1063 -1064 0
1065 1066 1067 1068 0
-1065 -1066 0
-1065 -1067 0
-1065 -1068 0
-1066 -1067 0
-1066 -1068 0
-1067 -1068 0
1069 1070 1071 1072 0
-1069 -1070 0
-1069 -1071 0
-1069 -1072 0
-1070 -1071 0
-1070 -1072 0
-1071 -1072 0
1073 1074 1075 1076 0
-1073 -1074 0
-1073 -1075 0
-1073 -1076 0
-1074 -1075 0
-1074 -1076 0
-1075 -1076 0
1077 1078 1079 1080 0
-1077 -1078 0
-1077 -1079 0
-1077 -1080 0
-1078 -1079 0
-1078 -1080 0
-1079 -1080 0
1081 1082 1083 1084 0
-1081 -1082 0
-1081 -1083 0
-1081 -1084 0
-1082 -1083 0
-1082 -1084 0
-1083 -1084 0
1085 1086 1087 1088 0
-1085 -1086 0
-1085 -1087 0
-1085 -1088 0
-1086 -1087 0
-1086 -1088 0
-1087 -1088 0
1089 1090 1091 1092 0
-1089 -1090 0
-1089 -1091 0
-1089 -1092 0
-1090 -1091 0
-1090 -1092 0
-1091 -1092 0
1093 1094 1095 1096 0
-1093 -1094 0
-1093 -1095 0
-1093 -1096 0
-1094 -1095 0
-1094 -1096 0
-1095 -1096 0
1097 1098 1099 1100 0
-1097 -1098 0
-1097 -1099 0
-1097 -1100 0
-1098 -1099 0
-1098 -1100 0
-1099 -1100 0
1101 1102 1103 1104 0
-1101 -1102 0
-1101 -1103 0
-1101 -1104 0
-1102 -1103 0
-1102 -1104 0
-1103 -1104 0
1105 1106 1107 1108 0
-1105 -1106 0
-1105 -1107 0
-1105 -1108 0
-1106 -1107 0
-1106 -1108 0
-1107 -1108 0
1109 1110 1111 1112 0
-1109 -1110 0
-1109 -1111 0
-1109 -1112 0
-1110 -1111 0
-1110 -1112 0
-1111 -1112 0
1113 1114 1115 1116 0
-1113 -1114 0
-1113 -1115 0
-1113 -1116 0
-1114 -1115 0
-1114 -1116 0
-1115 -1116 0
1117 1118 1119 1120 0
-1117 -1118 0
-1117 -1119 0
-1117 -1120 0
-1118 -1119 0
-1118 -1120 0
-1119 -1120 0
1121 1122 1123 1124 0
-1121 -1122 0
-1121 -1123 0
-1121 -1124 0
-1122 -1123 0
-1122 -1124 0
-1123 -1124 0
1125 1126 1127 1128 0
-1125 -1126 0
-1125 -1127 0
-1125 -1128 0
-1126 -1127 0
-1126 -1128 0
-1127 -1128 0
1129 1130 1131 1132 0
-1129 -1130 0
-1129 -1131 0
-1129 -1132 0
-1130 -1131 0
-1130 -1132 0
-1131 -1132 0
1133 1134 1135 1136 0
-1133 -1134 0
-1133 -1135 0
-1133 -1136 0
-1134 -1135 0
-1134 -1136 0
-1135 -1136 0
1137 1138 1139 1140 0
-1137 -1138 0
-1137 -1139 0
-1137 -1140 0
-1138 -1139 0
-1138 -1140 0
-1139 -1140 0
1141 1142 1143 1144 0
-1141 -1142 0
-1141 -1143 0
-1141 -1144 0
-1142 -1143 0
-1142 -1144 0
-1143 -1144 0
1145 1146 1147 1148 0
-1145 -1146 0
-1145 -1147 0
-1145 -1148 0
-1146 -1147 0
-1146 -1148 0
-1147 -1148 0
1149 1150 1151 1152 0
-1149 -1150 0
-1149 -1151 0
-1149 -1152 0
-1150 -1151 0
-1150 -1152 0
-1151 -1152 0
1153 1154 1155 1156 0
-1153 -1154 0
-1153 -1155 0
-1153 -1156 0
-1154 -1155 0
-1154 -1156 0
-1155 -1156 0
1157 1158 1159 1160 0
-1157 -1158 0
-1157 -1159 0
-1157 -1160 0
-1158 -1159 0
-1158 -1160 0
-1159 -1160 0
1161 1162 1163 1164 0
-1161 -1162 0
-1161 -1163 0
-1161 -1164 0
-1162 -1163 0
-1162 -1164 0
-1163 -1164 0
1165 1166 1167 1168 0
-1165 -1166 0
-1165 -1167 0
-1165 -1168 0
-1166 -1167 0
-1166 -1168 0
-1167 -1168 0
1169 1170 1171 1172 0
-1169 -1170 0
-1169 -1171 0
-1169 -1172 0
-1170 -1171 0
-1170 -1172 0
-1171 -1172 0
1173 1174 1175 1176 0
-1173 -1174 0
-1173 -1175 0
-1173 -1176 0
-1174 -1175 0
-1174 -1176 0
-1175 -1176 0
1177 1178 1179 1180 0
-1177 -1178 0
-1177 -1179 0
-1177 -1180 0
-1178 -1179 0
-1178 -1180 0
-1179 -1180 0
1181 1182 1183 1184 0
-1181 -1182 0
-1181 -1183 0
-1181 -1184 0
-1182 -1183 0
-1182 -1184 0
-1183 -1184 0
1185 1186 1187 1188 0
-1185 -1186 0
-1185 -1187 0
-1185 -1188 0
-1186 -1187 0
-1186 -1188 0
-1187 -1188 0
1189 1190 1191 1192 0
-1189 -1190 0
-1189 -1191 0
-1189 -1192 0
-1190 -1191 0
-1190 -1192 0
-1191 -1192 0
1193 1194 1195 1196 0
-1193 -1194 0
-1193 -1195 0
-1193 -1196 0
-1194 -1195 0
-1194 -1196 0
-1195 -1196 0
1197 1198 1199 1200 0
-1197 -1198 0
-1197 -1199 0
-1197 -1200 0
-1198 -1199 0
-1198 -1200 0
-1199 -1200 0
1201 1202 1203 1204 0
-1201 -1202 0
-1201 -1203 0
-1201 -1204 0
-1202 -1203 0
-1202 -1204 0
-1203 -1204 0
1205 1206 1207 1208 0
-1205 -1206 0
-1205 -1207 0
-1205 -1208 0
-1206 -1207 0
-1206 -1208 0
-1207 -1208 0
1209 1210 1211 1212 0
-1209 -1210 0
-1209 -1211 0
-1209 -1212 0
-1210 -1211 0
-1210 -1212 0
-1211 -1212 0
1213 1214 1215 1216 0
-1213 -1214 0
-1213 -1215 0
-1213 -1216 0
-1214 -1215 0
-1214 -1216 0
-1215 -1216 0
1217 1218 1219 1220 0
-1217 -1218 0
-1217 -1219 0
-1217 -1220 0
-1218 -1219 0
-1218 -1220 0
-1219 -1220 0
1221 1222 1223 1224 0
-1221 -1222 0
-1221 -1223 0
-1221 -1224 0
-1222 -1223 0
-1222 -1224 0
-1223 -1224 0
1225 1226 1227 1228 0
-1225 -1226 0
-1225 -1227 0
-1225 -1228 0
-1226 -1227 0
-1226 -1228 0
-1227 -1228 0
1229 1230 1231 1232 0
-1229 -1230 0
-1229 -1231 0
-1229 -1232 0
-1230 -1231 0
-1230 -1232 0
-1231 -1232 0
1233 1234 1235 1236 0
-1233 -1234 0
-1233 -1235 0
-1233 -1236 0
-1234 -1235 0
-1234 -1236 0
-1235 -1236 0
1237 1238 1239 1240 0
-1237 -1238 0
-1237 -1239 0
-1237 -1240 0
-1238 -1239 0
-1238 -1240 0
-1239 -1240 0
1241 1242 1243 1244 0
-1241 -1242 0
-1241 -1243 0
-1241 -1244 0
-1242 -1243 0
-1242 -1244 0
-1243 -1244 0
1245 1246 1247 1248 0
-1245 -1246 0
-1245 -1247 0
-1245 -1248 0
-1246 -1247 0
-1246 -1248 0
-1247 -1248 0
1249 1250 1251 1252 0
-1249 -1250 0
-1249 -1251 0
-1249 -1252 0
-1250 -1251 0
-1250 -1252 0
-1251 -1252 0
1253 1254 1255 1256 0
-1253 -1254 0
-1253 -1255 0
-1253 -1256 0
-1254 -1255 0
-1254 -1256 0
-1255 -1256 0
1257 1258 1259 1260 0
-1257 -1258 0
-1257 -1259 0
-1257 -1260 0
-1258 -1259 0
-1258 -1260 0
-1259 -1260 0
1261 1262 1263 1264 0
-1261 -1262 0
-1261 -1263 0
-1261 -1264 0
-1262 -1263 0
-1262 -1264 0
-1263 -1264 0
1265 1266 1267 1268 0
-1265 -1266 0
-1265 -1267 0
-1265 -1268 0
-1266 -1267 0
-1266 -1268 0
-1267 -1268 0
1269 1270 1271 1272 0
-1269 -1270 0
-1269 -1271 0
-1269 -1272 0
-1270 -1271 0
-1270 -1272 0
-1271 -1272 0
1273 1274 1275 1276 0
-1273 -1274 0
-1273 -1275 0
-1273 -1276 0
-1274 -1275 0
-1274 -1276 0
-1275 -1276 0
1277 1278 1279 1280 0
-1277 -1278 0
-1277 -1279 0
-1277 -1280 0
-1278 -1279 0
-1278 -1280 0
-1279 -1280 0
1281 1282 1283 1284 0
-1281 -1282 0
-1281 -1283 0
-1281 -1284 0
-1282 -1283 0
-1282 -1284 0
-1283 -1284 0
1285 1286 1287 1288 0
-1285 -1286 0
-1285 -1287 0
-1285 -1288 0
-1286 -1287 0
-1286 -1288 0
-1287 -1288 0
1289 1290 1291 1292 0
-1289 -1290 0
-1289 -1291 0
-1289 -1292 0
-1290 -1291 0
-1290 -1292 0
-1291 -1292 0
1293 1294 1295 1296 0
-1293 -1294 0
-1293 -1295 0
-1293 -1296 0
-1294 -1295 0
-1294 -1296 0
-1295 -1296 0
1297 1298 1299 1300 0
-1297 -1298 0
-1297 -1299 0
-1297 -1300 0
-1298 -1299 0
-1298 -1300 0
-1299 -1300 0
1301 1302 1303 1304 0
-1301 -1302 0
-1301 -1303 0
-1301 -1304 0
-1302 -1303 0
-1302 -1304 0
-1303 -1304 0
1305 1306 1307 1308 0
-1305 -1306 0
-1305 -1307 0
-1305 -1308 0
-1306 -1307 0
-1306 -1308 0
-1307 -1308 0
1309 1310 1311 1312 0
-1309 -1310 0
-1309 -1311 0
-1309 -1312 0
-1310 -1311 0
-1310 -1312 0
-1311 -1312 0
1313 1314 1315 1316 0
-1313 -1314 0
-1313 -1315 0
-1313 -1316 0
-1314 -1315 0
-1314 -1316 0
-1315 -1316 0
1317 1318 1319 1320 0
-1317 -1318 0
-1317 -1319 0
-1317 -1320 0
-1318 -1319 0
-1318 -1320 0
-1319 -1320 0
1321 1322 1323 1324 0
-1321 -1322 0
-1321 -1323 0
-1321 -1324 0
-1322 -1323 0
-1322 -1324 0
-1323 -1324 0
1325 1326 1327 1328 0
-1325 -1326 0
-1325 -1327 0
-1325 -1328 0
-1326 -1327 0
-1326 -1328 0
-1327 -1328 0
1329 1330 1331 1332 0
-1329 -1330 0
-1329 -1331 0
-1329 -1332 0
-1330 -1331 0
-1330 -1332 0
-1331 -1332 0
1333 1334 1335 1336 0
-1333 -1334 0
-1333 -1335 0
-1333 -1336 0
-1334 -1335 0
-1334 -1336 0
-1335 -1336 0
1337 1338 1339 1340 0
-1337 -1338 0
-1337 -1339 0
-1337 -1340 0
-1338 -1339 0
-1338 -1340 0
-1339 -1340 0
1341 1342 1343 1344 0
-1341 -1342 0
-1341 -1343 0
-1341 -1344 0
-1342 -1343 0
-1342 -1344 0
-1343 -1344 0
1345 1346 1347 1348 0
-1345 -1346 0
-1345 -1347 0
-1345 -1348 0
-1346 -1347 0
-1346 -1348 0
-1347 -1348 0
1349 1350 1351 1352 0
-1349 -1350 0
-1349 -1351 0
-1349 -1352 0
-1350 -1351 0
-1350 -1352 0
-1351 -1352 0
1353 1354 1355 1356 0
-1353 -1354 0
-1353 -1355 0
-1353 -1356 0
-1354 -1355 0
-1354 -1356 0
-1355 -1356 0
1357 1358 1359 1360 0
-1357 -1358 0
-1357 -1359 0
-1357 -1360 0
-1358 -1359 0
-1358 -1360 0
-1359 -1360 0
1361 1362 1363 1364 0
-1361 -1362 0
-1361 -1363 0
-1361 -1364 0
-1362 -1363 0
-1362 -1364 0
-1363 -1364 0
1365 1366 1367 1368 0
-1365 -1366 0
-1365 -1367 0
-1365 -1368 0
-1366 -1367 0
-1366 -1368 0
-1367 -1368 0
1369 1370 1371 1372 0
-1369 -1370 0
-1369 -1371 0
-1369 -1372 0
-1370 -1371 0
-1370 -1372 0
-1371 -1372 0
1373 1374 1375 1376 0
-1373 -1374 0
-1373 -1375 0
-1373 -1376 0
-1374 -1375 0
-1374 -1376 0
-1375 -1376 0
1377 1378 1379 1380 0
-1377 -1378 0
-1377 -1379 0
-1377 -1380 0
-1378 -1379 0
-1378 -1380 0
-1379 -1380 0
1381 1382 1383 1384 0
-1381 -1382 0
-1381 -1383 0
-1381 -1384 0
-1382 -1383 0
-1382 -1384 0
-1383 -1384 0
1385 1386 1387 1388 0
-1385 -1386 0
-1385 -1387 0
-1385 -1388 0
-1386 -1387 0
-1386 -1388 0
-1387 -1388 0
1389 1390 1391 1392 0
-1389 -1390 0
-1389 -1391 0
-1389 -1392 0
-1390 -1391 0
-1390 -1392 0
-1391 -1392 0
1393 1394 1395 1396 0
-1393 -1394 0
-1393 -1395 0
-1393 -1396 0
-1394 -1395 0
-1394 -1396 0
-1395 -1396 0
1397 1398 1399 1400 0
-1397 -1398 0
-1397 -1399 0
-1397 -1400 0
-1398 -1399 0
-1398 -1400 0
-1399 -1400 0
1401 1402 1403 1404 0
-1401 -1402 0
-1401 -1403 0
-1401 -1404 0
-1402 -1403 0
-1402 -1404 0
-1403 -1404 0
1405 1406 1407 1408 0
-1405 -1406 0
-1405 -1407 0
-1405 -1408 0
-1406 -1407 0
-1406 -1408 0
-1407 -1408 0
1409 1410 1411 1412 0
-1409 -1410 0
-1409 -1411 0
-1409 -1412 0
-1410 -1411 0
-1410 -1412 0
-1411 -1412 0
1413 1414 1415 1416 0
-1413 -1414 0
-1413 -1415 0
-1413 -1416 0
-1414 -1415 0
-1414 -1416 0
-1415 -1416 0
1417 1418 1419 1420 0
-1417 -1418 0
-1417 -1419 0
-1417 -1420 0
-1418 -1419 0
-1418 -1420 0
-1419 -1420 0
1421 1422 1423 1424 0
-1421 -1422 0
-1421 -1423 0
-1421 -1424 0
-1422 -1423 0
-1422 -1424 0
-1423 -1424 0
1425 1426 1427 1428 0
-1425 -1426 0
-1425 -1427 0
-1425 -1428 0
-1426 -1427 0
-1426 -1428 0
-1427 -1428 0
1429 1430 1431 1432 0
-1429 -1430 0
-1429 -1431 0
-1429 -1432 0
-1430 -1431 0
-1430 -1432 0
-1431 -1432 0
1433 1434 1435 1436 0
-1433 -1434 0
-1433 -1435 0
-1433 -1436 0
-1434 -1435 0
-1434 -1436 0
-1435 -1436 0
1437 1438 1439 1440 0
-1437 -1438 0
-1437 -1439 0
-1437 -1440 0
-1438 -1439 0
-1438 -1440 0
-1439 -1440 0
1441 1442 1443 1444 0
-1441 -1442 0
-1441 -1443 0
-1441 -1444 0
-1442 -1443 0
-1442 -1444 0
-1443 -1444 0
1445 1446 1447 1448 0
-1445 -1446 0
-1445 -1447 0
-1445 -1448 0
-1446 -1447 0
-1446 -1448 0
-1447 -1448 0
1449 1450 1451 1452 0
-1449 -1450 0
-1449 -1451 0
-1449 -1452 0
-1450 -1451 0
-1450 -1452 0
-1451 -1452 0
1453 1454 1455 1456 0
-1453 -1454 0
-1453 -1455 0
-1453 -1456 0
-1454 -1455 0
-1454 -1456 0
-1455 -1456 0
1457 1458 1459 1460 0
-1457 -1458 0
-1457 -1459 0
-1457 -1460 0
-1458 -1459 0
-1458 -1460 0
-1459 -1460 0
1461 1462 1463 1464 0
-1461 -1462 0
-1461 -1463 0
-1461 -1464 0
-1462 -1463 0
-1462 -1464 0
-1463 -1464 0
1465 1466 1467 1468 0
-1465 -1466 0
-1465 -1467 0
-1465 -1468 0
-1466 -1467 0
-1466 -1468 0
-1467 -1468 0
1469 1470 1471 1472 0
-1469 -1470 0
-1469 -1471 0
-1469 -1472 0
-1470 -1471 0
-1470 -1472 0
-1471 -1472 0
1473 1474 1475 1476 0
-1473 -1474 0
-1473 -1475 0
-1473 -1476 0
-1474 -1475 0
-1474 -1476 0
-1475 -1476 0
1477 1478 1479 1480 0
-1477 -1478 0
-1477 -1479 0
-1477 -1480 0
-1478 -1479 0
-1478 -1480 0
-1479 -1480 0
1481 1482 1483 1484 0
-1481 -1482 0
-1481 -1483 0
-1481 -1484 0
-1482 -1483 0
-1482 -1484 0
-1483 -1484 0
1485 1486 1487 1488 0
-1485 -1486 0
-1485 -1487 0
-1485 -1488 0
-1486 -1487 0
-1486 -1488 0
-1487 -1488 0
1489 1490 1491 1492 0
-1489 -1490 0
-1489 -1491 0
-1489 -1492 0
-1490 -1491 0
-1490 -1492 0
-1491 -1492 0
1493 1494 1495 1496 0
-1493 -1494 0
-1493 -1495 0
-1493 -1496 0
-1494 -1495 0
-1494 -1496 0
-1495 -1496 0
1497 1498 1499 1500 0
-1497 -1498 0
-1497 -1499 0
-1497 -1500 0
-1498 -1499 0
-1498 -1500 0
-1499 -1500 0
1501 1502 1503 1504 0
-1501 -1502 0
-1501 -1503 0
-1501 -1504 0
-1502 -1503 0
-1502 -1504 0
-1503 -1504 0
1505 1506 1507 1508 0
-1505 -1506 0
-1505 -1507 0
-1505 -1508 0
-1506 -1507 0
-1506 -1508 0
-1507 -1508 0
1509 1510 1511 1512 0
-1509 -1510 0
-1509 -1511 0
-1509 -1512 0
-1510 -1511 0
-1510 -1512 0
-1511 -1512 0
1513 1514 1515 1516 0
-1513 -1514 0
-1513 -1515 0
-1513 -1516 0
-1514 -1515 0
-1514 -1516 0
-1515 -1516 0
1517 1518 1519 1520 0
-1517 -1518 0
-1517 -1519 0
-1517 -1520 0
-1518 -1519 0
-1518 -1520 0
-1519 -1520 0
1521 1522 1523 1524 0
-1521 -1522 0
-1521 -1523 0
-1521 -1524 0
-1522 -1523 0
-1522 -1524 0
-1523 -1524 0
1525 1526 1527 1528 0
-1525 -1526 0
-1525 -1527 0
-1525 -1528 0
-1526 -1527 0
-1526 -1528 0
-1527 -1528 0
1529 1530 1531 1532 0
-1529 -1530 0
-1529 -1531 0
-1529 -1532 0
-1530 -1531 0
-1530 -1532 0
-1531 -1532 0
1533 1534 1535 1536 0
-1533 -1534 0
-1533 -1535 0
-1533 -1536 0
-1534 -1535 0
-1534 -1536 0
-1535 -1536 0
1537 1538 1539 1540 0
-1537 -1538 0
-1537 -1539 0
-1537 -1540 0
-1538 -1539 0
-1538 -1540 0
-1539 -1540 0
1541 1542 1543 1544 0
-1541 -1542 0
-1541 -1543 0
-1541 -1544 0
-1542 -1543 0
-1542 -1544 0
-1543 -1544 0
1545 1546 1547 1548 0
-1545 -1546 0
-1545 -1547 0
-1545 -1548 0
-1546 -1547 0
-1546 -1548 0
-1547 -1548 0
1549 1550 1551 1552 0
-1549 -1550 0
-1549 -1551 0
-1549 -1552 0
-1550 -1551 0
-1550 -1552 0
-1551 -1552 0
1553 1554 1555 1556 0
-1553 -1554 0
-1553 -1555 0
-1553 -1556 0
-1554 -1555 0
-1554 -1556 0
-1555 -1556 0
1557 1558 1559 1560 0
-1557 -1558 0
-1557 -1559 0
-1557 -1560 0
-1558 -1559 0
-1558 -1560 0
-1559 -1560 0
1561 1562 1563 1564 0
-1561 -1562 0
-1561 -1563 0
-1561 -1564 0
-1562 -1563 0
-1562 -1564 0
-1563 -1564 0
1565 1566 1567 1568 0
-1565 -1566 0
-1565 -1567 0
-1565 -1568 0
-1566 -1567 0
-1566 -1568 0
-1567 -1568 0
1569 1570 1571 1572 0
-1569 -1570 0
-1569 -1571 0
-1569 -1572 0
-1570 -1571 0
-1570 -1572 0
-1571 -1572 0
1573 1574 1575 1576 0
-1573 -1574 0
-1573 -1575 0
-1573 -1576 0
-1574 -1575 0
-1574 -1576 0
-1575 -1576 0
1577 1578 1579 1580 0
-1577 -1578 0
-1577 -1579 0
-1577 -1580 0
-1578 -1579 0
-1578 -1580 0
-1579 -1580 0
1581 1582 1583 1584 0
-1581 -1582 0
-1581 -1583 0
-1581 -1584 0
-1582 -1583 0
-1582 -1584 0
-1583 -1584 0
1585 1586 1587 1588 0
-1585 -1586 0
-1585 -1587 0
-1585 -1588 0
-1586 -1587 0
-1586 -1588 0
-1587 -1588 0
1589 1590 1591 1592 0
-1589 -1590 0
-1589 -1591 0
-1589 -1592 0
-1590 -1591 0
-1590 -1592 0
-1591 -1592 0
1593 1594 1595 1596 0
-1593 -1594 0
-1593 -1595 0
-1593 -1596 0
-1594 -1595 0
-1594 -1596 0
-1595 -1596 0
1597 1598 1599 1600 0
-1597 -1598 0
-1597 -1599 0
-1597 -1600 0
-1598 -1599 0
-1598 -1600 0
-1599 -1600 0
1601 1602 1603 1604 0
-1601 -1602 0
-1601 -1603 0
-1601 -1604 0
-1602 -1603 0
-1602 -1604 0
-1603 -1604 0
1605 1606 1607 1608 0
-1605 -1606 0
-1605 -1607 0
-1605 -1608 0
-1606 -1607 0
-1606 -1608 0
-1607 -1608 0
1609 1610 1611 1612 0
-1609 -1610 0
-1609 -1611 0
-1609 -1612 0
-1610 -1611 0
-1610 -1612 0
-1611 -1612 0
1613 1614 1615 1616 0
-1613 -1614 0
-1613 -1615 0
-1613 -1616 0
-1614 -1615 0
-1614 -1616 0
-1615 -1616 0
1617 1618 1619 1620 0
-1617 -1618 0
-1617 -1619 0
-1617 -1620 0
-1618 -1619 0
-1618 -1620 0
-1619 -1620 0
1621 1622 1623 1624 0
-1621 -1622 0
-1621 -1623 0
-1621 -1624 0
-1622 -1623 0
-1622 -1624 0
-1623 -1624 0
1625 1626 1627 1628 0
-1625 -1626 0
-1625 -1627 0
-1625 -1628 0
-1626 -1627 0
-1626 -1628 0
-1627 -1628 0
1629 1630 1631 1632 0
-1629 -1630 0
-1629 -1631 0
-1629 -1632 0
-1630 -1631 0
-1630 -1632 0
-1631 -1632 0
1633 1634 1635 1636 0
-1633 -1634 0
-1633 -1635 0
-1633 -1636 0
-1634 -1635 0
-1634 -1636 0
-1635 -1636 0
1637 1638 1639 1640 0
-1637 -1638 0
-1637 -1639 0
-1637 -1640 0
-1638 -1639 0
-1638 -1640 0
-1639 -1640 0
1641 1642 1643 1644 0
-1641 -1642 0
-1641 -1643 0
-1641 -1644 0
-1642 -1643 0
-1642 -1644 0
-1643 -1644 0
1645 1646 1647 1648 0
-1645 -1646 0
-1645 -1647 0
-1645 -1648 0
-1646 -1647 0
-1646 -1648 0
-1647 -1648 0
1649 1650 1651 1652 0
-1649 -1650 0
-1649 -1651 0
-1649 -1652 0
-1650 -1651 0
-1650 -1652 0
-1651 -1652 0
1653 1654 1655 1656 0
-1653 -1654 0
-1653 -1655 0
-1653 -1656 0
-1654 -1655 0
-1654 -1656 0
-1655 -1656 0
1657 1658 1659 1660 0
-1657 -1658 0
-1657 -1659 0
-1657 -1660 0
-1658 -1659 0
-1658 -1660 0
-1659 -1660 0
1661 1662 1663 1664 0
-1661 -1662 0
-1661 -1663 0
-1661 -1664 0
-1662 -1663 0
-1662 -1664 0
-1663 -1664 0
1665 1666 1667 1668 0
-1665 -1666 0
-1665 -1667 0
-1665 -1668 0
-1666 -1667 0
-1666 -1668 0
-1667 -1668 0
1669 1670 1671 1672 0
-1669 -1670 0
-1669 -1671 0
-1669 -1672 0
-1670 -1671 0
-1670 -1672 0
-1671 -1672 0
1673 1674 1675 1676 0
-1673 -1674 0
-1673 -1675 0
-1673 -1676 0
-1674 -1675 0
-1674 -1676 0
-1675 -1676 0
1677 1678 1679 1680 0
-1677 -1678 0
-1677 -1679 0
-1677 -1680 0
-1678 -1679 0
-1678 -1680 0
-1679 -1680 0
1681 1682 1683 1684 0
-1681 -1682 0
-1681 -1683 0
-1681 -1684 0
-1682 -1683 0
-1682 -1684 0
-1683 -1684 0
1685 1686 1687 1688 0
-1685 -1686 0
-1685 -1687 0
-1685 -1688 0
-1686 -1687 0
-1686 -1688 0
-1687 -1688 0
1689 1690 1691 1692 0
-1689 -1690 0
-1689 -1691 0
-1689 -1692 0
-1690 -1691 0
-1690 -1692 0
-1691 -1692 0
1693 1694 1695 1696 0
-1693 -1694 0
-1693 -1695 0
-1693 -1696 0
-1694 -1695 0
-1694 -1696 0
-1695 -1696 0
1697 1698 1699 1700 0
-1697 -1698 0
-1697 -1699 0
-1697 -1700 0
-1698 -1699 0
-1698 -1700 0
-1699 -1700 0
1701 1702 1703 1704 0
-1701 -1702 0
-1701 -1703 0
-1701 -1704 0
-1702 -1703 0
-1702 -1704 0
-1703 -1704 0
1705 1706 1707 1708 0
-1705 -1706 0
-1705 -1707 0
-1705 -1708 0
-1706 -1707 0
-1706 -1708 0
-1707 -1708 0
1709 1710 1711 1712 0
-1709 -1710 0
-1709 -1711 0
-1709 -1712 0
-1710 -1711 0
-1710 -1712 0
-1711 -1712 0
1713 1714 1715 1716 0
-1713 -1714 0
-1713 -1715 0
-1713 -1716 0
-1714 -1715 0
-1714 -1716 0
-1715 -1716 0
1717 1718 1719 1720 0
-1717 -1718 0
-1717 -1719 0
-1717 -1720 0
-1718 -1719 0
-1718 -1720 0
-1719 -1720 0
1721 1722 1723 1724 0
-1721 -1722 0
-1721 -1723 0
-1721 -1724 0
-1722 -1723 0
-1722 -1724 0
-1723 -1724 0
1725 1726 1727 1728 0
-1725 -1726 0
-1725 -1727 0
-1725 -1728 0
-1726 -1727 0
-1726 -1728 0
-1727 -1728 0
1729 1730 1731 1732 0
-1729 -1730 0
-1729 -1731 0
-1729 -1732 0
-1730 -1731 0
-1730 -1732 0
-1731 -1732 0
1733 1734 1735 1736 0
-1733 -1734 0
-1733 -1735 0
-1733 -1736 0
-1734 -1735 0
-1734 -1736 0
-1735 -1736 0
1737 1738 1739 1740 0
-1737 -1738 0
-1737 -1739 0
-1737 -1740 0
-1738 -1739 0
-1738 -1740 0
-1739 -1740 0
1741 1742 1743 1744 0
-1741 -1742 0
-1741 -1743 0
-1741 -1744 0
-1742 -1743 0
-1742 -1744 0
-1743 -1744 0
1745 1746 1747 1748 0
-1745 -1746 0
-1745 -1747 0
-1745 -1748 0
-1746 -1747 0
-1746 -1748 0
-1747 -1748 0
1749 1750 1751 1752 0
-1749 -1750 0
-1749 -1751 0
-1749 -1752 0
-1750 -1751 0
-1750 -1752 0
-1751 -1752 0
1753 1754 1755 1756 0
-1753 -1754 0
-1753 -1755 0
-1753 -1756 0
-1754 -1755 0
-1754 -1756 0
-1755 -1756 0
1757 1758 1759 1760 0
-1757 -1758 0
-1757 -1759 0
-1757 -1760 0
-1758 -1759 0
-1758 -1760 0
-1759 -1760 0
1761 1762 1763 1764 0
-1761 -1762 0
-1761 -1763 0
-1761 -1764 0
-1762 -1763 0
-1762 -1764 0
-1763 -1764 0
1765 1766 1767 1768 0
-1765 -1766 0
-1765 -1767 0
-1765 -1768 0
-1766 -1767 0
-1766 -1768 0
-1767 -1768 0
1769 1770 1771 1772 0
-1769 -1770 0
-1769 -1771 0
-1769 -1772 0
-1770 -1771 0
-1770 -1772 0
-1771 -1772 0
1773 1774 1775 1776 0
-1773 -1774 0
-1773 -1775 0
-1773 -1776 0
-1774 -1775 0
-1774 -1776 0
-1775 -1776 0
1777 1778 1779 1780 0
-1777 -1778 0
-1777 -1779 0
-1777 -1780 0
-1778 -1779 0
-1778 -1780 0
-1779 -1780 0
1781 1782 1783 1784 0
-1781 -1782 0
-1781 -1783 0
-1781 -1784 0
-1782 -1783 0
-1782 -1784 0
-1783 -1784 0
1785 1786 1787 1788 0
-1785 -1786 0
-1785 -1787 0
-1785 -1788 0
-1786 -1787 0
-1786 -1788 0
-1787 -1788 0
1789 1790 1791 1792 0
-1789 -1790 0
-1789 -1791 0
-1789 -1792 0
-1790 -1791 0
-1790 -1792 0
-1791 -1792 0
1793 1794 1795 1796 0
-1793 -1794 0
-1793 -1795 0
-1793 -1796 0
-1794 -1795 0
-1794 -1796 0
-1795 -1796 0
1797 1798 1799 1800 0
-1797 -1798 0
-1797 -1799 0
-1797 -1800 0
-1798 -1799 0
-1798 -1800 0
-1799 -1800 0
1801 1802 1803 1804 0
-1801 -1802 0
-1801 -1803 0
-1801 -1804 0
-1802 -1803 0
-1802 -1804 0
-1803 -1804 0
1805 1806 1807 1808 0
-1805 -1806 0
-1805 -1807 0
-1805 -1808 0
-1806 -1807 0
-1806 -1808 0
-1807 -1808 0
1809 1810 1811 1812 0
-1809 -1810 0
-1809 -1811 0
-1809 -1812 0
-1810 -1811 0
-1810 -1812 0
-1811 -1812 0
1813 1814 1815 1816 0
-1813 -1814 0
-1813 -1815 0
-1813 -1816 0
-1814 -1815 0
-1814 -1816 0
-1815 -1816 0
1817 1818 1819 1820 0
-1817 -1818 0
-1817 -1819 0
-1817 -1820 0
-1818 -1819 0
-1818 -1820 0
-1819 -1820 0
1821 1822 1823 1824 0
-1821 -1822 0
-1821 -1823 0
-1821 -1824 0
-1822 -1823 0
-1822 -1824 0
-1823 -1824 0
1825 1826 1827 1828 0
-1825 -1826 0
-1825 -1827 0
-1825 -1828 0
-1826 -1827 0
-1826 -1828 0
-1827 -1828 0
1829 1830 1831 1832 0
-1829 -1830 0
-1829 -1831 0
-1829 -1832 0
-1830 -1831 0
-1830 -1832 0
-1831 -1832 0
1833 1834 1835 1836 0
-1833 -1834 0
-1833 -1835 0
-1833 -1836 0
-1834 -1835 0
-1834 -1836 0
-1835 -1836 0
1837 1838 1839 1840 0
-1837 -1838 0
-1837 -1839 0
-1837 -1840 0
-1838 -1839 0
-1838 -1840 0
-1839 -1840 0
1841 1842 1843 1844 0
-1841 -1842 0
-1841 -1843 0
-1841 -1844 0
-1842 -1843 0
-1842 -1844 0
-1843 -1844 0
1845 1846 1847 1848 0
-1845 -1846 0
-1845 -1847 0
-1845 -1848 0
-1846 -1847 0
-1846 -1848 0
-1847 -1848 0
1849 1850 1851 1852 0
-1849 -1850 0
-1849 -1851 0
-1849 -1852 0
-1850 -1851 0
-1850 -1852 0
-1851 -1852 0
1853 1854 1855 1856 0
-1853 -1854 0
-1853 -1855 0
-1853 -1856 0
-1854 -1855 0
-1854 -1856 0
-1855 -1856 0
1857 1858 1859 1860 0
-1857 -1858 0
-1857 -1859 0
-1857 -1860 0
-1858 -1859 0
-1858 -1860 0
-1859 -1860 0
1861 1862 1863 1864 0
-1861 -1862 0
-1861 -1863 0
-1861 -1864 0
-1862 -1863 0
-1862 -1864 0
-1863 -1864 0
1865 1866 1867 1868 0
-1865 -1866 0
-1865 -1867 0
-1865 -1868 0
-1866 -1867 0
-1866 -1868 0
-1867 -1868 0
1869 1870 1871 1872 0
-1869 -1870 0
-1869 -1871 0
-1869 -1872 0
-1870 -1871 0
-1870 -1872 0
-1871 -1872 0
1873 1874 1875 1876 0
-1873 -1874 0
-1873 -1875 0
-1873 -1876 0
-1874 -1875 0
-1874 -1876 0
-1875 -1876 0
1877 1878 1879 1880 0
-1877 -1878 0
-1877 -1879 0
-1877 -1880 0
-1878 -1879 0
-1878 -1880 0
-1879 -1880 0
1881 1882 1883 1884 0
-1881 -1882 0
-1881 -1883 0
-1881 -1884 0
-1882 -1883 0
-1882 -1884 0
-1883 -1884 0
1885 1886 1887 1888 0
-1885 -1886 0
-1885 -1887 0
-1885 -1888 0
-1886 -1887 0
-1886 -1888 0
-1887 -1888 0
1889 1890 1891 1892 0
-1889 -1890 0
-1889 -1891 0
-1889 -1892 0
-1890 -1891 0
-1890 -1892 0
-1891 -1892 0
1893 1894 1895 1896 0
-1893 -1894 0
-1893 -1895 0
-1893 -1896 0
-1894 -1895 0
-1894 -1896 0
-1895 -1896 0
1897 1898 1899 1900 0
-1897 -1898 0
-1897 -1899 0
-1897 -1900 0
-1898 -1899 0
-1898 -1900 0
-1899 -1900 0
1901 1902 1903 1904 0
-1901 -1902 0
-1901 -1903 0
-1901 -1904 0
-1902 -1903 0
-1902 -1904 0
-1903 -1904 0
1905 1906 1907 1908 0
-1905 -1906 0
-1905 -1907 0
-1905 -1908 0
-1906 -1907 0
-1906 -1908 0
-1907 -1908 0
1909 1910 1911 1912 0
-1909 -1910 0
-1909 -1911 0
-1909 -1912 0
-1910 -1911 0
-1910 -1912 0
-1911 -1912 0
1913 1914 1915 1916 0
-1913 -1914 0
-1913 -1915 0
-1913 -1916 0
-1914 -1915 0
-1914 -1916 0
-1915 -1916 0
1917 1918 1919 1920 0
-1917 -1918 0
-1917 -1919 0
-1917 -1920 0
-1918 -1919 0
-1918 -1920 0
-1919 -1920 0
1921 1922 1923 1924 0
-1921 -1922 0
-1921 -1923 0
-1921 -1924 0
-1922 -1923 0
-1922 -1924 0
-1923 -1924 0
1925 1926 1927 1928 0
-1925 -1926 0
-1925 -1927 0
-1925 -1928 0
-1926 -1927 0
-1926 -1928 0
-1927 -1928 0
1929 1930 1931 1932 0
-1929 -1930 0
-1929 -1931 0
-1929 -1932 0
-1930 -1931 0
-1930 -1932 0
-1931 -1932 0
1933 1934 1935 1936 0
-1933 -1934 0
-1933 -1935 0
-1933 -1936 0
-1934 -1935 0
-1934 -1936 0
-1935 -1936 0
1937 1938 1939 1940 0
-1937 -1938 0
-1937 -1939 0
-1937 -1940 0
-1938 -1939 0
-1938 -1940 0
-1939 -1940 0
1941 1942 1943 1944 0
-1941 -1942 0
-1941 -1943 0
-1941 -1944 0
-1942 -1943 0
-1942 -1944 0
-1943 -1944 0
1945 1946 1947 1948 0
-1945 -1946 0
-1945 -1947 0
-1945 -1948 0
-1946 -1947 0
-1946 -1948 0
-1947 -1948 0
1949 1950 1951 1952 0
-1949 -1950 0
-1949 -1951 0
-1949 -1952 0
-1950 -1951 0
-1950 -1952 0
-1951 -1952 0
1953 1954 1955 1956 0
-1953 -1954 0
-1953 -1955 0
-1953 -1956 0
-1954 -1955 0
-1954 -1956 0
-1955 -1956 0
1957 1958 1959 1960 0
-1957 -1958 0
-1957 -1959 0
-1957 -1960 0
-1958 -1959 0
-1958 -1960 0
-1959 -1960 0
1961 1962 1963 1964 0
-1961 -1962 0
-1961 -1963 0
-1961 -1964 0
-1962 -1963 0
-1962 -1964 0
-1963 -1964 0
1965 1966 1967 1968 0
-1965 -1966 0
-1965 -1967 0
-1965 -1968 0
-1966 -1967 0
-1966 -1968 0
-1967 -1968 0
1969 1970 1971 1972 0
-1969 -1970 0
-1969 -1971 0
-1969 -1972 0
-1970 -1971 0
-1970 -1972 0
-1971 -1972 0
1973 1974 1975 1976 0
-1973 -1974 0
-1973 -1975 0
-1973 -1976 0
-1974 -1975 0
-1974 -1976 0
-1975 -1976 0
1977 1978 1979 1980 0
-1977 -1978 0
-1977 -1979 0
-1977 -1980 0
-1978 -1979 0
-1978 -1980 0
-1979 -1980 0
1981 1982 1983 1984 0
-1981 -1982 0
-1981 -1983 0
-1981 -1984 0
-1982 -1983 0
-1982 -1984 0
-1983 -1984 0
1985 1986 1987 1988 0
-1985 -1986 0
-1985 -1987 0
-1985 -1988 0
-1986 -1987 0
-1986 -1988 0
-1987 -1988 0
1989 1990 1991 1992 0
-1989 -1990 0
-1989 -1991 0
-1989 -1992 0
-1990 -1991 0
-1990 -1992 0
-1991 -1992 0
1993 1994 1995 1996 0
-1993 -1994 0
-1993 -1995 0
-1993 -1996 0
-1994 -1995 0
-1994 -1996 0
-1995 -1996 0
1997 1998 1999 2000 0
-1997 -1998 0
-1997 -1999 0
-1997 -2000 0
-1998 -1999 0
-1998 -2000 0
-1999 -2000 0
2001 2002 2003 2004 0
-2001 -2002 0
-2001 -2003 0
-2001 -2004 0
-2002 -2003 0
-2002 -2004 0
-2003 -2004 0
2005 2006 2007 2008 0
-2005 -2006 0
-2005 -2007 0
-2005 -2008 0
-2006 -2007 0
-2006 -2008 0
-2007 -2008 0
2009 2010 2011 2012 0
-2009 -2010 0
-2009 -2011 0
-2009 -2012 0
-2010 -2011 0
-2010 -2012 0
-2011 -2012 0
2013 2014 2015 2016 0
-2013 -2014 0
-2013 -2015 0
-2013 -2016 0
-2014 -2015 0
-2014 -2016 0
-2015 -2016 0
2017 2018 2019 2020 0
-2017 -2018 0
-2017 -2019 0
-2017 -2020 0
-2018 -2019 0
-2018 -2020 0
-2019 -2020 0
2021 2022 2023 2024 0
-2021 -2022 0
-2021 -2023 0
-2021 -2024 0
-2022 -2023 0
-2022 -2024 0
-2023 -2024 0
2025 2026 2027 2028 0
-2025 -2026 0
-2025 -2027 0
-2025 -2028 0
-2026 -2027 0
-2026 -2028 0
-2027 -2028 0
2029 2030 2031 2032 0
-2029 -2030 0
-2029 -2031 0
-2029 -2032 0
-2030 -2031 0
-2030 -2032 0
-2031 -2032 0
2033 2034 2035 2036 0
-2033 -2034 0
-2033 -2035 0
-2033 -2036 0
-2034 -2035 0
-2034 -2036 0
-2035 -2036 0
2037 2038 2039 2040 0
-2037 -2038 0
-2037 -2039 0
-2037 -2040 0
-2038 -2039 0
-2038 -2040 0
-2039 -2040 0
2041 2042 2043 2044 0
-2041 -2042 0
-2041 -2043 0
-2041 -2044 0
-2042 -2043 0
-2042 -2044 0
-2043 -2044 0
2045 2046 2047 2048 0
-2045 -2046 0
-2045 -2047 0
-2045 -2048 0
-2046 -2047 0
-2046 -2048 0
-2047 -2048 0
2049 2050 2051 2052 0
-2049 -2050 0
-2049 -2051 0
-2049 -2052 0
-2050 -2051 0
-2050 -2052 0
-2051 -2052 0
2053 2054 2055 2056 0
-2053 -2054 0
-2053 -2055 0
-2053 -2056 0
-2054 -2055 0
-2054 -2056 0
-2055 -2056 0
2057 2058 2059 2060 0
-2057 -2058 0
-2057 -2059 0
-2057 -2060 0
-2058 -2059 0
-2058 -2060 0
-2059 -2060 0
2061 2062 2063 2064 0
-2061 -2062 0
-2061 -2063 0
-2061 -2064 0
-2062 -2063 0
-2062 -2064 0
-2063 -2064 0
2065 2066 2067 2068 0
-2065 -2066 0
-2065 -2067 0
-2065 -2068 0
-2066 -2067 0
-2066 -2068 0
-2067 -2068 0
2069 2070 2071 2072 0
-2069 -2070 0
-2069 -2071 0
-2069 -2072 0
-2070 -2071 0
-2070 -2072 0
-2071 -2072 0
2073 2074 2075 2076 0
-2073 -2074 0
-2073 -2075 0
-2073 -2076 0
-2074 -2075 0
-2074 -2076 0
-2075 -2076 0
2077 2078 2079 2080 0
-2077 -2078 0
-2077 -2079 0
-2077 -2080 0
-2078 -2079 0
-2078 -2080 0
-2079 -2080 0
2081 2082 2083 2084 0
-2081 -2082 0
-2081 -2083 0
-2081 -2084 0
-2082 -2083 0
-2082 -2084 0
-2083 -2084 0
2085 2086 2087 2088 0
-2085 -2086 0
-2085 -2087 0
-2085 -2088 0
-2086 -2087 0
-2086 -2088 0
-2087 -2088 0
2089 2090 2091 2092 0
-2089 -2090 0
-2089 -2091 0
-2089 -2092 0
-2090 -2091 0
-2090 -2092 0
-2091 -2092 0
2093 2094 2095 2096 0
-2093 -2094 0
-2093 -2095 0
-2093 -2096 0
-2094 -2095 0
-2094 -2096 0
-2095 -2096 0
2097 2098 2099 2100 0
-2097 -2098 0
-2097 -2099 0
-2097 -2100 0
-2098 -2099 0
-2098 -2100 0
-2099 -2100 0
-1 -597 0
-2 -598 0
-3 -599 0
-4 -600 0
-1 -601 0
-2 -602 0
-3 -603 0
-4 -604 0
-1 -605 0
-2 -606 0
-3 -607 0
-4 -608 0
-1 -609 0
-2 -610 0
-3 -611 0
-4 -612 0
-1 -613 0
-2 -614 0
-3 -615 0
-4 -616 0
-1 -617 0
-2 -618 0
-3 -619 0
-4 -620 0
-1 -621 0
-2 -622 0
-3 -623 0
-4 -624 0
-1 -625 0
-2 -626 0
-3 -627 0
-4 -628 0
-1 -629 0
-2 -630 0
-3 -631 0
-4 -632 0
-1 -633 0
-2 -634 0
-3 -635 0
-4 -636 0
-1 -637 0
-2 -638 0
-3 -639 0
-4 -640 0
-1 -641 0
-2 -642 0
-3 -643 0
-4 -644 0
-1 -645 0
-2 -646 0
-3 -647 0
-4 -648 0
-1 -649 0
-2 -650 0
-3 -651 0
-4 -652 0
-1 -653 0
-2 -654 0
-3 -655 0
-4 -656 0
-1 -657 0
-2 -658 0
-3 -659 0
-4 -660 0
-1 -661 0
-2 -662 0
-3 -663 0
-4 -664 0
-1 -665 0
-2 -666 0
-3 -667 0
-4 -668 0
-1 -669 0
-2 -670 0
-3 -671 0
-4 -672 0
-1 -673 0
-2 -674 0
-3 -675 0
-4 -676 0
-1 -677 0
-2 -678 0
-3 -679 0
-4 -680 0
-1 -681 0
-2 -682 0
-3 -683 0
-4 -684 0
-1 -685 0
-2 -686 0
-3 -687 0
-4 -688 0
-1 -689 0
-2 -690 0
-3 -691 0
-4 -692 0
-1 -1641 0
-2 -1642 0
-3 -1643 0
-4 -1644 0
-1 -1645 0
-2 -1646 0
-3 -1647 0
-4 -1648 0
-1 -1649 0
-2 -1650 0
-3 -1651 0
-4 -1652 0
-1 -1653 0
-2 -1654 0
-3 -1655 0
-4 -1656 0
-1 -1657 0
-2 -1658 0
-3 -1659 0
-4 -1660 0
-1 -1661 0
-2 -1662 0
-3 -1663 0
-4 -1664 0
-1 -1665 0
-2 -1666 0
-3 -1667 0
-4 -1668 0
-1 -1669 0
-2 -1670 0
-3 -1671 0
-4 -1672 0
-1 -1673 0
-2 -1674 0
-3 -1675 0
-4 -1676 0
-1 -1677 0
-2 -1678 0
-3 -1679 0
-4 -1680 0
-1 -1681 0
-2 -1682 0
-3 -1683 0
-4 -1684 0
-1 -1685 0
-2 -1686 0
-3 -1687 0
-4 -1688 0
-5 -493 0
-6 -494 0
-7 -495 0
-8 -496 0
-5 -497 0
-6 -498 0
-7 -499 0
-8 -500 0
-5 -537 0
-6 -538 0
-7 -539 0
-8 -540 0
-5 -565 0
-6 -566 0
-7 -567 0
-8 -568 0
-5 -581 0
-6 -582 0
-7 -583 0
-8 -584 0
-5 -625 0
-6 -626 0
-7 -627 0
-8 -628 0
-5 -673 0
-6 -674 0
-7 -675 0
-8 -676 0
-5 -701 0
-6 -702 0
-7 -703 0
-8 -704 0
-5 -733 0
-6 -734 0
-7 -735 0
-8 -736 0
-5 -745 0
-6 -746 0
-7 -747 0
-8 -748 0
-5 -785 0
-6 -786 0
-7 -787 0
-8 -788 0
-5 -789 0
-6 -790 0
-7 -791 0
-8 -792 0
-5 -797 0
-6 -798 0
-7 -799 0
-8 -800 0
-9 -541 0
-10 -542 0
-11 -543 0
-12 -544 0
-9 -569 0
-10 -570 0
-11 -571 0
-12 -572 0
-9 -585 0
-10 -586 0
-11 -587 0
-12 -588 0
-9 -681 0
-10 -682 0
-11 -683 0
-12 -684 0
-9 -705 0
-10 -706 0
-11 -707 0
-12 -708 0
-9 -737 0
-10 -738 0
-11 -739 0
-12 -740 0
-9 -741 0
-10 -742 0
-11 -743 0
-12 -744 0
-9 -749 0
-10 -750 0
-11 -751 0
-12 -752 0
-9 -793 0
-10 -794 0
-11 -795 0
-12 -796 0
-9 -801 0
-10 -802 0
-11 -803 0
-12 -804 0
-13 -501 0
-14 -502 0
-15 -503 0
-16 -504 0
-13 -537 0
-14 -538 0
-15 -539 0
-16 -540 0
-13 -573 0
-14 -574 0
-15 -575 0
-16 -576 0
-13 -589 0
-14 -590 0
-15 -591 0
-16 -592 0
-13 -637 0
-14 -638 0
-15 -639 0
-16 -640 0
-13 -693 0
-14 -694 0
-15 -695 0
-16 -696 0
-13 -709 0
-14 -710 0
-15 -711 0
-16 -712 0
-13 -745 0
-14 -746 0
-15 -747 0
-16 -748 0
-13 -753 0
-14 -754 0
-15 -755 0
-16 -756 0
-13 -801 0
-14 -802 0
-15 -803 0
-16 -804 0
-13 -809 0
-14 -810 0
-15 -811 0
-16 -812 0
-17 -505 0
-18 -506 0
-19 -507 0
-20 -508 0
-17 -509 0
-18 -510 0
-19 -511 0
-20 -512 0
-17 -541 0
-18 -542 0
-19 -543 0
-20 -544 0
-17 -577 0
-18 -578 0
-19 -579 0
-20 -580 0
-17 -593 0
-18 -594 0
-19 -595 0
-20 -596 0
-17 -597 0
-18 -598 0
-19 -599 0
-20 -600 0
-17 -645 0
-18 -646 0
-19 -647 0
-20 -648 0
-17 -697 0
-18 -698 0
-19 -699 0
-20 -700 0
-17 -713 0
-18 -714 0
-19 -715 0
-20 -716 0
-17 -749 0
-18 -750 0
-19 -751 0
-20 -752 0
-17 -757 0
-18 -758 0
-19 -759 0
-20 -760 0
-17 -805 0
-18 -806 0
-19 -807 0
-20 -808 0
-17 -813 0
-18 -814 0
-19 -815 0
-20 -816 0
-17 -861 0
-18 -862 0
-19 -863 0
-20 -864 0
-21 -513 0
-22 -514 0
-23 -515 0
-24 -516 0
-21 -517 0
-22 -518 0
-23 -519 0
-24 -520 0
-21 -545 0
-22 -546 0
-23 -547 0
-24 -548 0
-21 -549 0
-22 -550 0
-23 -551 0
-24 -552 0
-21 -581 0
-22 -582 0
-23 -583 0
-24 -584 0
-21 -609 0
-22 -610 0
-23 -611 0
-24 -612 0
-21 -657 0
-22 -658 0
-23 -659 0
-24 -660 0
-21 -701 0
-22 -702 0
-23 -703 0
-24 -704 0
-21 -717 0
-22 -718 0
-23 -719 0
-24 -720 0
-21 -753 0
-22 -754 0
-23 -755 0
-24 -756 0
-21 -761 0
-22 -762 0
-23 -763 0
-24 -764 0
-21 -813 0
-22 -814 0
-23 -815 0
-24 -816 0
-21 -821 0
-22 -822 0
-23 -823 0
-24 -824 0
-25 -521 0
-26 -522 0
-27 -523 0
-28 -524 0
-25 -525 0
-26 -526 0
-27 -527 0
-28 -528 0
-25 -553 0
-26 -554 0
-27 -555 0
-28 -556 0
-25 -585 0
-26 -586 0
-27 -587 0
-28 -588 0
-25 -617 0
-26 -618 0
-27 -619 0
-28 -620 0
-25 -705 0
-26 -706 0
-27 -707 0
-28 -708 0
-25 -721 0
-26 -722 0
-27 -723 0
-28 -724 0
-25 -757 0
-26 -758 0
-27 -759 0
-28 -760 0
-25 -765 0
-26 -766 0
-27 -767 0
-28 -768 0
-25 -817 0
-26 -818 0
-27 -819 0
-28 -820 0
-25 -825 0
-26 -826 0
-27 -827 0
-28 -828 0
-29 -545 0
-30 -546 0
-31 -547 0
-32 -548 0
-29 -557 0
-30 -558 0
-31 -559 0
-32 -560 0
-29 -589 0
-30 -590 0
-31 -591 0
-32 -592 0
-29 -669 0
-30 -670 0
-31 -671 0
-32 -672 0
-29 -709 0
-30 -710 0
-31 -711 0
-32 -712 0
-29 -725 0
-30 -726 0
-31 -727 0
-32 -728 0
-29 -761 0
-30 -762 0
-31 -763 0
-32 -764 0
-29 -769 0
-30 -770 0
-31 -771 0
-32 -772 0
-29 -825 0
-30 -826 0
-31 -827 0
-32 -828 0
-29 -833 0
-30 -834 0
-31 -835 0
-32 -836 0
-33 -461 0
-34 -462 0
-35 -463 0
-36 -464 0
-33 -465 0
-34 -466 0
-35 -467 0
-36 -468 0
-33 -525 0
-34 -526 0
-35 -527 0
-36 -528 0
-33 -561 0
-34 -562 0
-35 -563 0
-36 -564 0
-33 -593 0
-34 -594 0
-35 -595 0
-36 -596 0
-33 -629 0
-34 -630 0
-35 -631 0
-36 -632 0
-33 -677 0
-34 -678 0
-35 -679 0
-36 -680 0
-33 -713 0
-34 -714 0
-35 -715 0
-36 -716 0
-33 -729 0
-34 -730 0
-35 -731 0
-36 -732 0
-33 -765 0
-34 -766 0
-35 -767 0
-36 -768 0
-33 -773 0
-34 -774 0
-35 -775 0
-36 -776 0
-33 -829 0
-34 -830 0
-35 -831 0
-36 -832 0
-33 -837 0
-34 -838 0
-35 -839 0
-36 -840 0
-33 -865 0
-34 -866 0
-35 -867 0
-36 -868 0
-37 -469 0
-38 -470 0
-39 -471 0
-40 -472 0
-37 -473 0
-38 -474 0
-39 -475 0
-40 -476 0
-37 -529 0
-38 -530 0
-39 -531 0
-40 -532 0
-37 -549 0
-38 -550 0
-39 -551 0
-40 -552 0
-37 -565 0
-38 -566 0
-39 -567 0
-40 -568 0
-37 -641 0
-38 -642 0
-39 -643 0
-40 -644 0
-37 -689 0
-38 -690 0
-39 -691 0
-40 -692 0
-37 -717 0
-38 -718 0
-39 -719 0
-40 -720 0
-37 -733 0
-38 -734 0
-39 -735 0
-40 -736 0
-37 -769 0
-38 -770 0
-39 -771 0
-40 -772 0
-37 -777 0
-38 -778 0
-39 -779 0
-40 -780 0
-37 -837 0
-38 -838 0
-39 -839 0
-40 -840 0
-37 -845 0
-38 -846 0
-39 -847 0
-40 -848 0
-41 -477 0
-42 -478 0
-43 -479 0
-44 -480 0
-41 -533 0
-42 -534 0
-43 -535 0
-44 -536 0
-41 -553 0
-42 -554 0
-43 -555 0
-44 -556 0
-41 -569 0
-42 -570 0
-43 -571 0
-44 -572 0
-41 -649 0
-42 -650 0
-43 -651 0
-44 -652 0
-41 -721 0
-42 -722 0
-43 -723 0
-44 -724 0
-41 -737 0
-42 -738 0
-43 -739 0
-44 -740 0
-41 -773 0
-42 -774 0
-43 -775 0
-44 -776 0
-41 -781 0
-42 -782 0
-43 -783 0
-44 -784 0
-41 -841 0
-42 -842 0
-43 -843 0
-44 -844 0
-41 -849 0
-42 -850 0
-43 -851 0
-44 -852 0
-45 -481 0
-46 -482 0
-47 -483 0
-48 -484 0
-45 -529 0
-46 -530 0
-47 -531 0
-48 -532 0
-45 -557 0
-46 -558 0
-47 -559 0
-48 -560 0
-45 -573 0
-46 -574 0
-47 -575 0
-48 -576 0
-45 -605 0
-46 -606 0
-47 -607 0
-48 -608 0
-45 -693 0
-46 -694 0
-47 -695 0
-48 -696 0
-45 -725 0
-46 -726 0
-47 -727 0
-48 -728 0
-45 -777 0
-46 -778 0
-47 -779 0
-48 -780 0
-45 -785 0
-46 -786 0
-47 -787 0
-48 -788 0
-45 -849 0
-46 -850 0
-47 -851 0
-48 -852 0
-45 -857 0
-46 -858 0
-47 -859 0
-48 -860 0
-49 -485 0
-50 -486 0
-51 -487 0
-52 -488 0
-49 -489 0
-50 -490 0
-51 -491 0
-52 -492 0
-49 -533 0
-50 -534 0
-51 -535 0
-52 -536 0
-49 -561 0
-50 -562 0
-51 -563 0
-52 -564 0
-49 -577 0
-50 -578 0
-51 -579 0
-52 -580 0
-49 -613 0
-50 -614 0
-51 -615 0
-52 -616 0
-49 -661 0
-50 -662 0
-51 -663 0
-52 -664 0
-49 -697 0
-50 -698 0
-51 -699 0
-52 -700 0
-49 -729 0
-50 -730 0
-51 -731 0
-52 -732 0
-49 -741 0
-50 -742 0
-51 -743 0
-52 -744 0
-49 -781 0
-50 -782 0
-51 -783 0
-52 -784 0
-49 -789 0
-50 -790 0
-51 -791 0
-52 -792 0
-49 -853 0
-50 -854 0
-51 -855 0
-52 -856 0
-49 -869 0
-50 -870 0
-51 -871 0
-52 -872 0
-53 -341 0
-54 -342 0
-55 -343 0
-56 -344 0
-53 -505 0
-54 -506 0
-55 -507 0
-56 -508 0
-53 -625 0
-54 -626 0
-55 -627 0
-56 -628 0
-53 -677 0
-54 -678 0
-55 -679 0
-56 -680 0
-53 -805 0
-54 -806 0
-55 -807 0
-56 -808 0
-53 -925 0
-54 -926 0
-55 -927 0
-56 -928 0
-57 -349 0
-58 -350 0
-59 -351 0
-60 -352 0
-57 -389 0
-58 -390 0
-59 -391 0
-60 -392 0
-57 -397 0
-58 -398 0
-59 -399 0
-60 -400 0
-57 -489 0
-58 -490 0
-59 -491 0
-60 -492 0
-57 -629 0
-58 -630 0
-59 -631 0
-60 -632 0
-57 -685 0
-58 -686 0
-59 -687 0
-60 -688 0
-57 -789 0
-58 -790 0
-59 -791 0
-60 -792 0
-57 -809 0
-58 -810 0
-59 -811 0
-60 -812 0
-57 -873 0
-58 -874 0
-59 -875 0
-60 -876 0
-57 -881 0
-58 -882 0
-59 -883 0
-60 -884 0
-57 -929 0
-58 -930 0
-59 -931 0
-60 -932 0
-57 -933 0
-58 -934 0
-59 -935 0
-60 -936 0
-61 -345 0
-62 -346 0
-63 -347 0
-64 -348 0
-61 -393 0
-62 -394 0
-63 -395 0
-64 -396 0
-61 -401 0
-62 -402 0
-63 -403 0
-64 -404 0
-61 -513 0
-62 -514 0
-63 -515 0
-64 -516 0
-61 -633 0
-62 -634 0
-63 -635 0
-64 -636 0
-61 -689 0
-62 -690 0
-63 -691 0
-64 -692 0
-61 -793 0
-62 -794 0
-63 -795 0
-64 -796 0
-61 -813 0
-62 -814 0
-63 -815 0
-64 -816 0
-61 -877 0
-62 -878 0
-63 -879 0
-64 -880 0
-61 -885 0
-62 -886 0
-63 -887 0
-64 -888 0
-61 -937 0
-62 -938 0
-63 -939 0
-64 -940 0
-61 -941 0
-62 -942 0
-63 -943 0
-64 -944 0
-65 -353 0
-66 -354 0
-67 -355 0
-68 -356 0
-65 -497 0
-66 -498 0
-67 -499 0
-68 -500 0
-65 -597 0
-66 -598 0
-67 -599 0
-68 -600 0
-65 -641 0
-66 -642 0
-67 -643 0
-68 -644 0
-65 -797 0
-66 -798 0
-67 -799 0
-68 -800 0
-65 -945 0
-66 -946 0
-67 -947 0
-68 -948 0
-69 -357 0
-70 -358 0
-71 -359 0
-72 -360 0
-69 -461 0
-70 -462 0
-71 -463 0
-72 -464 0
-69 -613 0
-70 -614 0
-71 -615 0
-72 -616 0
-69 -657 0
-70 -658 0
-71 -659 0
-72 -660 0
-69 -829 0
-70 -830 0
-71 -831 0
-72 -832 0
-69 -957 0
-70 -958 0
-71 -959 0
-72 -960 0
-73 -317 0
-74 -318 0
-75 -319 0
-76 -320 0
-73 -365 0
-74 -366 0
-75 -367 0
-76 -368 0
-73 -405 0
-74 -406 0
-75 -407 0
-76 -408 0
-73 -509 0
-74 -510 0
-75 -511 0
-76 -512 0
-73 -621 0
-74 -622 0
-75 -623 0
-76 -624 0
-73 -661 0
-74 -662 0
-75 -663 0
-76 -664 0
-73 -813 0
-74 -814 0
-75 -815 0
-76 -816 0
-73 -833 0
-74 -834 0
-75 -835 0
-76 -836 0
-73 -889 0
-74 -890 0
-75 -891 0
-76 -892 0
-73 -897 0
-74 -898 0
-75 -899 0
-76 -900 0
-73 -961 0
-74 -962 0
-75 -963 0
-76 -964 0
-73 -965 0
-74 -966 0
-75 -967 0
-76 -968 0
-77 -361 0
-78 -362 0
-79 -363 0
-80 -364 0
-77 -369 0
-78 -370 0
-79 -371 0
-80 -372 0
-77 -409 0
-78 -410 0
-79 -411 0
-80 -412 0
-77 -469 0
-78 -470 0
-79 -471 0
-80 -472 0
-77 -625 0
-78 -626 0
-79 -627 0
-80 -628 0
-77 -665 0
-78 -666 0
-79 -667 0
-80 -668 0
-77 -817 0
-78 -818 0
-79 -819 0
-80 -820 0
-77 -837 0
-78 -838 0
-79 -839 0
-80 -840 0
-77 -893 0
-78 -894 0
-79 -895 0
-80 -896 0
-77 -901 0
-78 -902 0
-79 -903 0
-80 -904 0
-77 -969 0
-78 -970 0
-79 -971 0
-80 -972 0
-77 -973 0
-78 -974 0
-79 -975 0
-80 -976 0
-81 -321 0
-82 -322 0
-83 -323 0
-84 -324 0
-81 -517 0
-82 -518 0
-83 -519 0
-84 -520 0
-81 -629 0
-82 -630 0
-83 -631 0
-84 -632 0
-81 -673 0
-82 -674 0
-83 -675 0
-84 -676 0
-81 -821 0
-82 -822 0
-83 -823 0
-84 -824 0
-81 -977 0
-82 -978 0
-83 -979 0
-84 -980 0
-85 -325 0
-86 -326 0
-87 -327 0
-88 -328 0
-85 -485 0
-86 -486 0
-87 -487 0
-88 -488 0
-85 -645 0
-86 -646 0
-87 -647 0
-88 -648 0
-85 -689 0
-86 -690 0
-87 -691 0
-88 -692 0
-85 -853 0
-86 -854 0
-87 -855 0
-88 -856 0
-85 -989 0
-86 -990 0
-87 -991 0
-88 -992 0
-89 -333 0
-90 -334 0
-91 -335 0
-92 -336 0
-89 -373 0
-90 -374 0
-91 -375 0
-92 -376 0
-89 -381 0
-90 -382 0
-91 -383 0
-92 -384 0
-89 -465 0
-90 -466 0
-91 -467 0
-92 -468 0
-89 -597 0
-90 -598 0
-91 -599 0
-92 -600 0
-89 -653 0
-90 -654 0
-91 -655 0
-92 -656 0
-89 -837 0
-90 -838 0
-91 -839 0
-92 -840 0
-89 -857 0
-90 -858 0
-91 -859 0
-92 -860 0
-89 -905 0
-90 -906 0
-91 -907 0
-92 -908 0
-89 -913 0
-90 -914 0
-91 -915 0
-92 -916 0
-89 -993 0
-90 -994 0
-91 -995 0
-92 -996 0
-89 -997 0
-90 -998 0
-91 -999 0
-92 -1000 0
-93 -329 0
-94 -330 0
-95 -331 0
-96 -332 0
-93 -377 0
-94 -378 0
-95 -379 0
-96 -380 0
-93 -385 0
-94 -386 0
-95 -387 0
-96 -388 0
-93 -493 0
-94 -494 0
-95 -495 0
-96 -496 0
-93 -601 0
-94 -602 0
-95 -603 0
-96 -604 0
-93 -657 0
-94 -658 0
-95 -659 0
-96 -660 0
-93 -789 0
-94 -790 0
-95 -791 0
-96 -792 0
-93 -841 0
-94 -842 0
-95 -843 0
-96 -844 0
-93 -909 0
-94 -910 0
-95 -911 0
-96 -912 0
-93 -917 0
-94 -918 0
-95 -919 0
-96 -920 0
-93 -1001 0
-94 -1002 0
-95 -1003 0
-96 -1004 0
-93 -1005 0
-94 -1006 0
-95 -1007 0
-96 -1008 0
-97 -337 0
-98 -338 0
-99 -339 0
-100 -340 0
-97 -473 0
-98 -474 0
-99 -475 0
-100 -476 0
-97 -609 0
-98 -610 0
-99 -611 0
-100 -612 0
-97 -661 0
-98 -662 0
-99 -663 0
-100 -664 0
-97 -845 0
-98 -846 0
-99 -847 0
-100 -848 0
-97 -1009 0
-98 -1010 0
-99 -1011 0
-100 -1012 0
-101 -337 0
-102 -338 0
-103 -339 0
-104 -340 0
-101 -349 0
-102 -350 0
-103 -351 0
-104 -352 0
-101 -433 0
-102 -434 0
-103 -435 0
-104 -436 0
-101 -445 0
-102 -446 0
-103 -447 0
-104 -448 0
-101 -705 0
-102 -706 0
-103 -707 0
-104 -708 0
-101 -733 0
-102 -734 0
-103 -735 0
-104 -736 0
-101 -933 0
-102 -934 0
-103 -935 0
-104 -936 0
-105 -345 0
-106 -346 0
-107 -347 0
-108 -348 0
-105 -357 0
-106 -358 0
-107 -359 0
-108 -360 0
-105 -441 0
-106 -442 0
-107 -443 0
-108 -444 0
-105 -453 0
-106 -454 0
-107 -455 0
-108 -456 0
-105 -693 0
-106 -694 0
-107 -695 0
-108 -696 0
-105 -713 0
-106 -714 0
-107 -715 0
-108 -716 0
-105 -937 0
-106 -938 0
-107 -939 0
-108 -940 0
-109 -317 0
-110 -318 0
-111 -319 0
-112 -320 0
-109 -353 0
-110 -354 0
-111 -355 0
-112 -356 0
-109 -413 0
-110 -414 0
-111 -415 0
-112 -416 0
-109 -449 0
-110 -450 0
-111 -451 0
-112 -452 0
-109 -701 0
-110 -702 0
-111 -703 0
-112 -704 0
-109 -721 0
-110 -722 0
-111 -723 0
-112 -724 0
-109 -965 0
-110 -966 0
-111 -967 0
-112 -968 0
-113 -325 0
-114 -326 0
-115 -327 0
-116 -328 0
-113 -361 0
-114 -362 0
-115 -363 0
-116 -364 0
-113 -421 0
-114 -422 0
-115 -423 0
-116 -424 0
-113 -457 0
-114 -458 0
-115 -459 0
-116 -460 0
-113 -709 0
-114 -710 0
-115 -711 0
-116 -712 0
-113 -729 0
-114 -730 0
-115 -731 0
-116 -732 0
-113 -969 0
-114 -970 0
-115 -971 0
-116 -972 0
-117 -321 0
-118 -322 0
-119 -323 0
-120 -324 0
-117 -333 0
-118 -334 0
-119 -335 0
-120 -336 0
-117 -417 0
-118 -418 0
-119 -419 0
-120 -420 0
-117 -429 0
-118 -430 0
-119 -431 0
-120 -432 0
-117 -717 0
-118 -718 0
-119 -719 0
-120 -720 0
-117 -737 0
-118 -738 0
-119 -739 0
-120 -740 0
-117 -997 0
-118 -998 0
-119 -999 0
-120 -1000 0
-121 -329 0
-122 -330 0
-123 -331 0
-124 -332 0
-121 -341 0
-122 -342 0
-123 -343 0
-124 -344 0
-121 -425 0
-122 -426 0
-123 -427 0
-124 -428 0
-121 -437 0
-122 -438 0
-123 -439 0
-124 -440 0
-121 -697 0
-122 -698 0
-123 -699 0
-124 -700 0
-121 -725 0
-122 -726 0
-123 -727 0
-124 -728 0
-121 -1001 0
-122 -1002 0
-123 -1003 0
-124 -1004 0
-125 -257 0
-126 -258 0
-127 -259 0
-128 -260 0
-125 -261 0
-126 -262 0
-127 -263 0
-128 -264 0
-125 -333 0
-126 -334 0
-127 -335 0
-128 -336 0
-125 -349 0
-126 -350 0
-127 -351 0
-128 -352 0
-125 -477 0
-126 -478 0
-127 -479 0
-128 -480 0
-125 -505 0
-126 -506 0
-127 -507 0
-128 -508 0
-125 -561 0
-126 -562 0
-127 -563 0
-128 -564 0
-125 -585 0
-126 -586 0
-127 -587 0
-128 -588 0
-125 -749 0
-126 -750 0
-127 -751 0
-128 -752 0
-125 -781 0
-126 -782 0
-127 -783 0
-128 -784 0
-125 -913 0
-126 -914 0
-127 -915 0
-128 -916 0
-125 -929 0
-126 -930 0
-127 -931 0
-128 -932 0
-125 -1077 0
-126 -1078 0
-127 -1079 0
-128 -1080 0
-129 -265 0
-130 -266 0
-131 -267 0
-132 -268 0
-129 -269 0
-130 -270 0
-131 -271 0
-132 -272 0
-129 -305 0
-130 -306 0
-131 -307 0
-132 -308 0
-129 -337 0
-130 -338 0
-131 -339 0
-132 -340 0
-129 -353 0
-130 -354 0
-131 -355 0
-132 -356 0
-129 -513 0
-130 -514 0
-131 -515 0
-132 -516 0
-129 -565 0
-130 -566 0
-131 -567 0
-132 -568 0
-129 -589 0
-130 -590 0
-131 -591 0
-132 -592 0
-129 -753 0
-130 -754 0
-131 -755 0
-132 -756 0
-129 -785 0
-130 -786 0
-131 -787 0
-132 -788 0
-129 -885 0
-130 -886 0
-131 -887 0
-132 -888 0
-129 -921 0
-130 -922 0
-131 -923 0
-132 -924 0
-129 -945 0
-130 -946 0
-131 -947 0
-132 -948 0
-129 -1029 0
-130 -1030 0
-131 -1031 0
-132 -1032 0
-129 -1037 0
-130 -1038 0
-131 -1039 0
-132 -1040 0
-133 -269 0
-134 -270 0
-135 -271 0
-136 -272 0
-133 -273 0
-134 -274 0
-135 -275 0
-136 -276 0
-133 -309 0
-134 -310 0
-135 -311 0
-136 -312 0
-133 -341 0
-134 -342 0
-135 -343 0
-136 -344 0
-133 -357 0
-134 -358 0
-135 -359 0
-136 -360 0
-133 -489 0
-134 -490 0
-135 -491 0
-136 -492 0
-133 -569 0
-134 -570 0
-135 -571 0
-136 -572 0
-133 -593 0
-134 -594 0
-135 -595 0
-136 -596 0
-133 -741 0
-134 -742 0
-135 -743 0
-136 -744 0
-133 -757 0
-134 -758 0
-135 -759 0
-136 -760 0
-133 -873 0
-134 -874 0
-135 -875 0
-136 -876 0
-133 -925 0
-134 -926 0
-135 -927 0
-136 -928 0
-133 -949 0
-134 -950 0
-135 -951 0
-136 -952 0
-133 -1033 0
-134 -1034 0
-135 -1035 0
-136 -1036 0
-133 -1041 0
-134 -1042 0
-135 -1043 0
-136 -1044 0
-137 -277 0
-138 -278 0
-139 -279 0
-140 -280 0
-137 -281 0
-138 -282 0
-139 -283 0
-140 -284 0
-137 -345 0
-138 -346 0
-139 -347 0
-140 -348 0
-137 -361 0
-138 -362 0
-139 -363 0
-140 -364 0
-137 -497 0
-138 -498 0
-139 -499 0
-140 -500 0
-137 -549 0
-138 -550 0
-139 -551 0
-140 -552 0
-137 -573 0
-138 -574 0
-139 -575 0
-140 -576 0
-137 -745 0
-138 -746 0
-139 -747 0
-140 -748 0
-137 -761 0
-138 -762 0
-139 -763 0
-140 -764 0
-137 -893 0
-138 -894 0
-139 -895 0
-140 -896 0
-137 -941 0
-138 -942 0
-139 -943 0
-140 -944 0
-137 -1081 0
-138 -1082 0
-139 -1083 0
-140 -1084 0
-141 -281 0
-142 -282 0
-143 -283 0
-144 -284 0
-141 -285 0
-142 -286 0
-143 -287 0
-144 -288 0
-141 -317 0
-142 -318 0
-143 -319 0
-144 -320 0
-141 -349 0
-142 -350 0
-143 -351 0
-144 -352 0
-141 -461 0
-142 -462 0
-143 -463 0
-144 -464 0
-141 -553 0
-142 -554 0
-143 -555 0
-144 -556 0
-141 -577 0
-142 -578 0
-143 -579 0
-144 -580 0
-141 -749 0
-142 -750 0
-143 -751 0
-144 -752 0
-141 -765 0
-142 -766 0
-143 -767 0
-144 -768 0
-141 -881 0
-142 -882 0
-143 -883 0
-144 -884 0
-141 -961 0
-142 -962 0
-143 -963 0
-144 -964 0
-141 -1085 0
-142 -1086 0
-143 -1087 0
-144 -1088 0
-145 -221 0
-146 -222 0
-147 -223 0
-148 -224 0
-145 -289 0
-146 -290 0
-147 -291 0
-148 -292 0
-145 -313 0
-146 -314 0
-147 -315 0
-148 -316 0
-145 -321 0
-146 -322 0
-147 -323 0
-148 -324 0
-145 -353 0
-146 -354 0
-147 -355 0
-148 -356 0
-145 -469 0
-146 -470 0
-147 -471 0
-148 -472 0
-145 -557 0
-146 -558 0
-147 -559 0
-148 -560 0
-145 -581 0
-146 -582 0
-147 -583 0
-148 -584 0
-145 -753 0
-146 -754 0
-147 -755 0
-148 -756 0
-145 -769 0
-146 -770 0
-147 -771 0
-148 -772 0
-145 -901 0
-146 -902 0
-147 -903 0
-148 -904 0
-145 -953 0
-146 -954 0
-147 -955 0
-148 -956 0
-145 -977 0
-146 -978 0
-147 -979 0
-148 -980 0
-145 -1045 0
-146 -1046 0
-147 -1047 0
-148 -1048 0
-145 -1053 0
-146 -1054 0
-147 -1055 0
-148 -1056 0
-149 -221 0
-150 -222 0
-151 -223 0
-152 -224 0
-149 -225 0
-150 -226 0
-151 -227 0
-152 -228 0
-149 -293 0
-150 -294 0
-151 -295 0
-152 -296 0
-149 -325 0
-150 -326 0
-151 -327 0
-152 -328 0
-149 -357 0
-150 -358 0
-151 -359 0
-152 -360 0
-149 -509 0
-150 -510 0
-151 -511 0
-152 -512 0
-149 -561 0
-150 -562 0
-151 -563 0
-152 -564 0
-149 -585 0
-150 -586 0
-151 -587 0
-152 -588 0
-149 -757 0
-150 -758 0
-151 -759 0
-152 -760 0
-149 -773 0
-150 -774 0
-151 -775 0
-152 -776 0
-149 -889 0
-150 -890 0
-151 -891 0
-152 -892 0
-149 -957 0
-150 -958 0
-151 -959 0
-152 -960 0
-149 -981 0
-150 -982 0
-151 -983 0
-152 -984 0
-149 -1049 0
-150 -1050 0
-151 -1051 0
-152 -1052 0
-149 -1057 0
-150 -1058 0
-151 -1059 0
-152 -1060 0
-153 -229 0
-154 -230 0
-155 -231 0
-156 -232 0
-153 -233 0
-154 -234 0
-155 -235 0
-156 -236 0
-153 -329 0
-154 -330 0
-155 -331 0
-156 -332 0
-153 -361 0
-154 -362 0
-155 -363 0
-156 -364 0
-153 -481 0
-154 -482 0
-155 -483 0
-156 -484 0
-153 -517 0
-154 -518 0
-155 -519 0
-156 -520 0
-153 -565 0
-154 -566 0
-155 -567 0
-156 -568 0
-153 -589 0
-154 -590 0
-155 -591 0
-156 -592 0
-153 -761 0
-154 -762 0
-155 -763 0
-156 -764 0
-153 -777 0
-154 -778 0
-155 -779 0
-156 -780 0
-153 -909 0
-154 -910 0
-155 -911 0
-156 -912 0
-153 -973 0
-154 -974 0
-155 -975 0
-156 -976 0
-153 -1089 0
-154 -1090 0
-155 -1091 0
-156 -1092 0
-157 -233 0
-158 -234 0
-159 -235 0
-160 -236 0
-157 -237 0
-158 -238 0
-159 -239 0
-160 -240 0
-157 -317 0
-158 -318 0
-159 -319 0
-160 -320 0
-157 -333 0
-158 -334 0
-159 -335 0
-160 -336 0
-157 -485 0
-158 -486 0
-159 -487 0
-160 -488 0
-157 -521 0
-158 -522 0
-159 -523 0
-160 -524 0
-157 -569 0
-158 -570 0
-159 -571 0
-160 -572 0
-157 -593 0
-158 -594 0
-159 -595 0
-160 -596 0
-157 -765 0
-158 -766 0
-159 -767 0
-160 -768 0
-157 -781 0
-158 -782 0
-159 -783 0
-160 -784 0
-157 -897 0
-158 -898 0
-159 -899 0
-160 -900 0
-157 -993 0
-158 -994 0
-159 -995 0
-160 -996 0
-157 -1093 0
-158 -1094 0
-159 -1095 0
-160 -1096 0
-161 -241 0
-162 -242 0
-163 -243 0
-164 -244 0
-161 -245 0
-162 -246 0
-163 -247 0
-164 -248 0
-161 -297 0
-162 -298 0
-163 -299 0
-164 -300 0
-161 -321 0
-162 -322 0
-163 -323 0
-164 -324 0
-161 -337 0
-162 -338 0
-163 -339 0
-164 -340 0
-161 -493 0
-162 -494 0
-163 -495 0
-164 -496 0
-161 -549 0
-162 -550 0
-163 -551 0
-164 -552 0
-161 -573 0
-162 -574 0
-163 -575 0
-164 -576 0
-161 -769 0
-162 -770 0
-163 -771 0
-164 -772 0
-161 -785 0
-162 -786 0
-163 -787 0
-164 -788 0
-161 -917 0
-162 -918 0
-163 -919 0
-164 -920 0
-161 -985 0
-162 -986 0
-163 -987 0
-164 -988 0
-161 -1009 0
-162 -1010 0
-163 -1011 0
-164 -1012 0
-161 -1061 0
-162 -1062 0
-163 -1063 0
-164 -1064 0
-161 -1069 0
-162 -1070 0
-163 -1071 0
-164 -1072 0
-165 -245 0
-166 -246 0
-167 -247 0
-168 -248 0
-165 -249 0
-166 -250 0
-167 -251 0
-168 -252 0
-165 -301 0
-166 -302 0
-167 -303 0
-168 -304 0
-165 -325 0
-166 -326 0
-167 -327 0
-168 -328 0
-165 -341 0
-166 -342 0
-167 -343 0
-168 -344 0
-165 -465 0
-166 -466 0
-167 -467 0
-168 -468 0
-165 -553 0
-166 -554 0
-167 -555 0
-168 -556 0
-165 -577 0
-166 -578 0
-167 -579 0
-168 -580 0
-165 -741 0
-166 -742 0
-167 -743 0
-168 -744 0
-165 -773 0
-166 -774 0
-167 -775 0
-168 -776 0
-165 -905 0
-166 -906 0
-167 -907 0
-168 -908 0
-165 -989 0
-166 -990 0
-167 -991 0
-168 -992 0
-165 -1013 0
-166 -1014 0
-167 -1015 0
-168 -1016 0
-165 -1065 0
-166 -1066 0
-167 -1067 0
-168 -1068 0
-165 -1073 0
-166 -1074 0
-167 -1075 0
-168 -1076 0
-169 -253 0
-170 -254 0
-171 -255 0
-172 -256 0
-169 -257 0
-170 -258 0
-171 -259 0
-172 -260 0
-169 -329 0
-170 -330 0
-171 -331 0
-172 -332 0
-169 -345 0
-170 -346 0
-171 -347 0
-172 -348 0
-169 -473 0
-170 -474 0
-171 -475 0
-172 -476 0
-169 -501 0
-170 -502 0
-171 -503 0
-172 -504 0
-169 -557 0
-170 -558 0
-171 -559 0
-172 -560 0
-169 -581 0
-170 -582 0
-171 -583 0
-172 -584 0
-169 -745 0
-170 -746 0
-171 -747 0
-172 -748 0
-169 -777 0
-170 -778 0
-171 -779 0
-172 -780 0
-169 -877 0
-170 -878 0
-171 -879 0
-172 -880 0
-169 -1005 0
-170 -1006 0
-171 -1007 0
-172 -1008 0
-169 -1097 0
-170 -1098 0
-171 -1099 0
-172 -1100 0
-173 -253 0
-174 -254 0
-175 -255 0
-176 -256 0
-173 -265 0
-174 -266 0
-175 -267 0
-176 -268 0
-173 -397 0
-174 -398 0
-175 -399 0
-176 -400 0
-173 -621 0
-174 -622 0
-175 -623 0
-176 -624 0
-173 -673 0
-174 -674 0
-175 -675 0
-176 -676 0
-173 -701 0
-174 -702 0
-175 -703 0
-176 -704 0
-173 -933 0
-174 -934 0
-175 -935 0
-176 -936 0
-173 -1009 0
-174 -1010 0
-175 -1011 0
-176 -1012 0
-173 -1029 0
-174 -1030 0
-175 -1031 0
-176 -1032 0
-173 -1097 0
-174 -1098 0
-175 -1099 0
-176 -1100 0
-173 -1101 0
-174 -1102 0
-175 -1103 0
-176 -1104 0
-177 -257 0
-178 -258 0
-179 -259 0
-180 -260 0
-177 -269 0
-178 -270 0
-179 -271 0
-180 -272 0
-177 -301 0
-178 -302 0
-179 -303 0
-180 -304 0
-177 -381 0
-178 -382 0
-179 -383 0
-180 -384 0
-177 -401 0
-178 -402 0
-179 -403 0
-180 -404 0
-177 -625 0
-178 -626 0
-179 -627 0
-180 -628 0
-177 -681 0
-178 -682 0
-179 -683 0
-180 -684 0
-177 -705 0
-178 -706 0
-179 -707 0
-180 -708 0
-177 -733 0
-178 -734 0
-179 -735 0
-180 -736 0
-177 -941 0
-178 -942 0
-179 -943 0
-180 -944 0
-177 -1013 0
-178 -1014 0
-179 -1015 0
-180 -1016 0
-177 -1017 0
-178 -1018 0
-179 -1019 0
-180 -1020 0
-177 -1033 0
-178 -1034 0
-179 -1035 0
-180 -1036 0
-177 -1105 0
-178 -1106 0
-179 -1107 0
-180 -1108 0
-181 -269 0
-182 -270 0
-183 -271 0
-184 -272 0
-181 -281 0
-182 -282 0
-183 -283 0
-184 -284 0
-181 -313 0
-182 -314 0
-183 -315 0
-184 -316 0
-181 -389 0
-182 -390 0
-183 -391 0
-184 -392 0
-181 -409 0
-182 -410 0
-183 -411 0
-184 -412 0
-181 -597 0
-182 -598 0
-183 -599 0
-184 -600 0
-181 -637 0
-182 -638 0
-183 -639 0
-184 -640 0
-181 -693 0
-182 -694 0
-183 -695 0
-184 -696 0
-181 -713 0
-182 -714 0
-183 -715 0
-184 -716 0
-181 -929 0
-182 -930 0
-183 -931 0
-184 -932 0
-181 -953 0
-182 -954 0
-183 -955 0
-184 -956 0
-181 -1017 0
-182 -1018 0
-183 -1019 0
-184 -1020 0
-181 -1037 0
-182 -1038 0
-183 -1039 0
-184 -1040 0
-181 -1117 0
-182 -1118 0
-183 -1119 0
-184 -1120 0
-185 -273 0
-186 -274 0
-187 -275 0
-188 -276 0
-185 -285 0
-186 -286 0
-187 -287 0
-188 -288 0
-185 -393 0
-186 -394 0
-187 -395 0
-188 -396 0
-185 -601 0
-186 -602 0
-187 -603 0
-188 -604 0
-185 -645 0
-186 -646 0
-187 -647 0
-188 -648 0
-185 -697 0
-186 -698 0
-187 -699 0
-188 -700 0
-185 -937 0
-186 -938 0
-187 -939 0
-188 -940 0
-185 -957 0
-186 -958 0
-187 -959 0
-188 -960 0
-185 -1041 0
-186 -1042 0
-187 -1043 0
-188 -1044 0
-185 -1085 0
-186 -1086 0
-187 -1087 0
-188 -1088 0
-185 -1121 0
-186 -1122 0
-187 -1123 0
-188 -1124 0
-189 -277 0
-190 -278 0
-191 -279 0
-192 -280 0
-189 -289 0
-190 -290 0
-191 -291 0
-192 -292 0
-189 -365 0
-190 -366 0
-191 -367 0
-192 -368 0
-189 -609 0
-190 -610 0
-191 -611 0
-192 -612 0
-189 -653 0
-190 -654 0
-191 -655 0
-192 -656 0
-189 -717 0
-190 -718 0
-191 -719 0
-192 -720 0
-189 -945 0
-190 -946 0
-191 -947 0
-192 -948 0
-189 -965 0
-190 -966 0
-191 -967 0
-192 -968 0
-189 -1045 0
-190 -1046 0
-191 -1047 0
-192 -1048 0
-189 -1081 0
-190 -1082 0
-191 -1083 0
-192 -1084 0
-189 -1125 0
-190 -1126 0
-191 -1127 0
-192 -1128 0
-193 -221 0
-194 -222 0
-195 -223 0
-196 -224 0
-193 -281 0
-194 -282 0
-195 -283 0
-196 -284 0
-193 -309 0
-194 -310 0
-195 -311 0
-196 -312 0
-193 -369 0
-194 -370 0
-195 -371 0
-196 -372 0
-193 -397 0
-194 -398 0
-195 -399 0
-196 -400 0
-193 -617 0
-194 -618 0
-195 -619 0
-196 -620 0
-193 -657 0
-194 -658 0
-195 -659 0
-196 -660 0
-193 -701 0
-194 -702 0
-195 -703 0
-196 -704 0
-193 -721 0
-194 -722 0
-195 -723 0
-196 -724 0
-193 -949 0
-194 -950 0
-195 -951 0
-196 -952 0
-193 -973 0
-194 -974 0
-195 -975 0
-196 -976 0
-193 -1021 0
-194 -1022 0
-195 -1023 0
-196 -1024 0
-193 -1049 0
-194 -1050 0
-195 -1051 0
-196 -1052 0
-193 -1129 0
-194 -1130 0
-195 -1131 0
-196 -1132 0
-197 -221 0
-198 -222 0
-199 -223 0
-200 -224 0
-197 -233 0
-198 -234 0
-199 -235 0
-200 -236 0
-197 -297 0
-198 -298 0
-199 -299 0
-200 -300 0
-197 -377 0
-198 -378 0
-199 -379 0
-200 -380 0
-197 -405 0
-198 -406 0
-199 -407 0
-200 -408 0
-197 -629 0
-198 -630 0
-199 -631 0
-200 -632 0
-197 -669 0
-198 -670 0
-199 -671 0
-200 -672 0
-197 -709 0
-198 -710 0
-199 -711 0
-200 -712 0
-197 -729 0
-198 -730 0
-199 -731 0
-200 -732 0
-197 -961 0
-198 -962 0
-199 -963 0
-200 -964 0
-197 -985 0
-198 -986 0
-199 -987 0
-200 -988 0
-197 -1021 0
-198 -1022 0
-199 -1023 0
-200 -1024 0
-197 -1053 0
-198 -1054 0
-199 -1055 0
-200 -1056 0
-197 -1141 0
-198 -1142 0
-199 -1143 0
-200 -1144 0
-201 -225 0
-202 -226 0
-203 -227 0
-204 -228 0
-201 -237 0
-202 -238 0
-203 -239 0
-204 -240 0
-201 -409 0
-202 -410 0
-203 -411 0
-204 -412 0
-201 -633 0
-202 -634 0
-203 -635 0
-204 -636 0
-201 -677 0
-202 -678 0
-203 -679 0
-204 -680 0
-201 -713 0
-202 -714 0
-203 -715 0
-204 -716 0
-201 -969 0
-202 -970 0
-203 -971 0
-204 -972 0
-201 -989 0
-202 -990 0
-203 -991 0
-204 -992 0
-201 -1057 0
-202 -1058 0
-203 -1059 0
-204 -1060 0
-201 -1093 0
-202 -1094 0
-203 -1095 0
-204 -1096 0
-201 -1145 0
-202 -1146 0
-203 -1147 0
-204 -1148 0
-205 -229 0
-206 -230 0
-207 -231 0
-208 -232 0
-205 -241 0
-206 -242 0
-207 -243 0
-208 -244 0
-205 -381 0
-206 -382 0
-207 -383 0
-208 -384 0
-205 -641 0
-206 -642 0
-207 -643 0
-208 -644 0
-205 -685 0
-206 -686 0
-207 -687 0
-208 -688 0
-205 -733 0
-206 -734 0
-207 -735 0
-208 -736 0
-205 -977 0
-206 -978 0
-207 -979 0
-208 -980 0
-205 -997 0
-206 -998 0
-207 -999 0
-208 -1000 0
-205 -1061 0
-206 -1062 0
-207 -1063 0
-208 -1064 0
-205 -1089 0
-206 -1090 0
-207 -1091 0
-208 -1092 0
-205 -1149 0
-206 -1150 0
-207 -1151 0
-208 -1152 0
-209 -233 0
-210 -234 0
-211 -235 0
-212 -236 0
-209 -245 0
-210 -246 0
-211 -247 0
-212 -248 0
-209 -293 0
-210 -294 0
-211 -295 0
-212 -296 0
-209 -365 0
-210 -366 0
-211 -367 0
-212 -368 0
-209 -385 0
-210 -386 0
-211 -387 0
-212 -388 0
-209 -649 0
-210 -650 0
-211 -651 0
-212 -652 0
-209 -689 0
-210 -690 0
-211 -691 0
-212 -692 0
-209 -717 0
-210 -718 0
-211 -719 0
-212 -720 0
-209 -737 0
-210 -738 0
-211 -739 0
-212 -740 0
-209 -981 0
-210 -982 0
-211 -983 0
-212 -984 0
-209 -1005 0
-210 -1006 0
-211 -1007 0
-212 -1008 0
-209 -1025 0
-210 -1026 0
-211 -1027 0
-212 -1028 0
-209 -1065 0
-210 -1066 0
-211 -1067 0
-212 -1068 0
-209 -1153 0
-210 -1154 0
-211 -1155 0
-212 -1156 0
-213 -245 0
-214 -246 0
-215 -247 0
-216 -248 0
-213 -257 0
-214 -258 0
-215 -259 0
-216 -260 0
-213 -305 0
-214 -306 0
-215 -307 0
-216 -308 0
-213 -373 0
-214 -374 0
-215 -375 0
-216 -376 0
-213 -393 0
-214 -394 0
-215 -395 0
-216 -396 0
-213 -605 0
-214 -606 0
-215 -607 0
-216 -608 0
-213 -661 0
-214 -662 0
-215 -663 0
-216 -664 0
-213 -697 0
-214 -698 0
-215 -699 0
-216 -700 0
-213 -725 0
-214 -726 0
-215 -727 0
-216 -728 0
-213 -921 0
-214 -922 0
-215 -923 0
-216 -924 0
-213 -993 0
-214 -994 0
-215 -995 0
-216 -996 0
-213 -1025 0
-214 -1026 0
-215 -1027 0
-216 -1028 0
-213 -1069 0
-214 -1070 0
-215 -1071 0
-216 -1072 0
-213 -1165 0
-214 -1166 0
-215 -1167 0
-216 -1168 0
-217 -249 0
-218 -250 0
-219 -251 0
-220 -252 0
-217 -261 0
-218 -262 0
-219 -263 0
-220 -264 0
-217 -377 0
-218 -378 0
-219 -379 0
-220 -380 0
-217 -613 0
-218 -614 0
-219 -615 0
-220 -616 0
-217 -665 0
-218 -666 0
-219 -667 0
-220 -668 0
-217 -729 0
-218 -730 0
-219 -731 0
-220 -732 0
-217 -925 0
-218 -926 0
-219 -927 0
-220 -928 0
-217 -1001 0
-218 -1002 0
-219 -1003 0
-220 -1004 0
-217 -1073 0
-218 -1074 0
-219 -1075 0
-220 -1076 0
-217 -1077 0
-218 -1078 0
-219 -1079 0
-220 -1080 0
-217 -1169 0
-218 -1170 0
-219 -1171 0
-220 -1172 0
-221 -245 0
-222 -246 0
-223 -247 0
-224 -248 0
-221 -269 0
-222 -270 0
-223 -271 0
-224 -272 0
-221 -377 0
-222 -378 0
-223 -379 0
-224 -380 0
-221 -397 0
-222 -398 0
-223 -399 0
-224 -400 0
-221 -557 0
-222 -558 0
-223 -559 0
-224 -560 0
-221 -585 0
-222 -586 0
-223 -587 0
-224 -588 0
-221 -617 0
-222 -618 0
-223 -619 0
-224 -620 0
-221 -669 0
-222 -670 0
-223 -671 0
-224 -672 0
-221 -801 0
-222 -802 0
-223 -803 0
-224 -804 0
-221 -849 0
-222 -850 0
-223 -851 0
-224 -852 0
-221 -929 0
-222 -930 0
-223 -931 0
-224 -932 0
-221 -1005 0
-222 -1006 0
-223 -1007 0
-224 -1008 0
-221 -1029 0
-222 -1030 0
-223 -1031 0
-224 -1032 0
-221 -1073 0
-222 -1074 0
-223 -1075 0
-224 -1076 0
-221 -1105 0
-222 -1106 0
-223 -1107 0
-224 -1108 0
-221 -1165 0
-222 -1166 0
-223 -1167 0
-224 -1168 0
-221 -1173 0
-222 -1174 0
-223 -1175 0
-224 -1176 0
-221 -1217 0
-222 -1218 0
-223 -1219 0
-224 -1220 0
-221 -1221 0
-222 -1222 0
-223 -1223 0
-224 -1224 0
-221 -1289 0
-222 -1290 0
-223 -1291 0
-224 -1292 0
-225 -249 0
-226 -250 0
-227 -251 0
-228 -252 0
-225 -273 0
-226 -274 0
-227 -275 0
-228 -276 0
-225 -401 0
-226 -402 0
-227 -403 0
-228 -404 0
-225 -509 0
-226 -510 0
-227 -511 0
-228 -512 0
-225 -561 0
-226 -562 0
-227 -563 0
-228 -564 0
-225 -621 0
-226 -622 0
-227 -623 0
-228 -624 0
-225 -677 0
-226 -678 0
-227 -679 0
-228 -680 0
-225 -805 0
-226 -806 0
-227 -807 0
-228 -808 0
-225 -853 0
-226 -854 0
-227 -855 0
-228 -856 0
-225 -937 0
-226 -938 0
-227 -939 0
-228 -940 0
-225 -1033 0
-226 -1034 0
-227 -1035 0
-228 -1036 0
-225 -1109 0
-226 -1110 0
-227 -1111 0
-228 -1112 0
-225 -1169 0
-226 -1170 0
-227 -1171 0
-228 -1172 0
-225 -1221 0
-226 -1222 0
-227 -1223 0
-228 -1224 0
-225 -1225 0
-226 -1226 0
-227 -1227 0
-228 -1228 0
-229 -253 0
-230 -254 0
-231 -255 0
-232 -256 0
-229 -277 0
-230 -278 0
-231 -279 0
-232 -280 0
-229 -381 0
-230 -382 0
-231 -383 0
-232 -384 0
-229 -481 0
-230 -482 0
-231 -483 0
-232 -484 0
-229 -589 0
-230 -590 0
-231 -591 0
-232 -592 0
-229 -685 0
-230 -686 0
-231 -687 0
-232 -688 0
-229 -809 0
-230 -810 0
-231 -811 0
-232 -812 0
-229 -857 0
-230 -858 0
-231 -859 0
-232 -860 0
-229 -945 0
-230 -946 0
-231 -947 0
-232 -948 0
-229 -1101 0
-230 -1102 0
-231 -1103 0
-232 -1104 0
-229 -1113 0
-230 -1114 0
-231 -1115 0
-232 -1116 0
-229 -1229 0
-230 -1230 0
-231 -1231 0
-232 -1232 0
-233 -257 0
-234 -258 0
-235 -259 0
-236 -260 0
-233 -281 0
-234 -282 0
-235 -283 0
-236 -284 0
-233 -385 0
-234 -386 0
-235 -387 0
-236 -388 0
-233 -405 0
-234 -406 0
-235 -407 0
-236 -408 0
-233 -485 0
-234 -486 0
-235 -487 0
-236 -488 0
-233 -517 0
-234 -518 0
-235 -519 0
-236 -520 0
-233 -565 0
-234 -566 0
-235 -567 0
-236 -568 0
-233 -593 0
-234 -594 0
-235 -595 0
-236 -596 0
-233 -629 0
-234 -630 0
-235 -631 0
-236 -632 0
-233 -689 0
-234 -690 0
-235 -691 0
-236 -692 0
-233 -789 0
-234 -790 0
-235 -791 0
-236 -792 0
-233 -813 0
-234 -814 0
-235 -815 0
-236 -816 0
-233 -921 0
-234 -922 0
-235 -923 0
-236 -924 0
-233 -949 0
-234 -950 0
-235 -951 0
-236 -952 0
-233 -1105 0
-234 -1106 0
-235 -1107 0
-236 -1108 0
-233 -1117 0
-234 -1118 0
-235 -1119 0
-236 -1120 0
-233 -1177 0
-234 -1178 0
-235 -1179 0
-236 -1180 0
-233 -1181 0
-234 -1182 0
-235 -1183 0
-236 -1184 0
-233 -1229 0
-234 -1230 0
-235 -1231 0
-236 -1232 0
-233 -1233 0
-234 -1234 0
-235 -1235 0
-236 -1236 0
-237 -261 0
-238 -262 0
-239 -263 0
-240 -264 0
-237 -285 0
-238 -286 0
-239 -287 0
-240 -288 0
-237 -409 0
-238 -410 0
-239 -411 0
-240 -412 0
-237 -521 0
-238 -522 0
-239 -523 0
-240 -524 0
-237 -569 0
-238 -570 0
-239 -571 0
-240 -572 0
-237 -633 0
-238 -634 0
-239 -635 0
-240 -636 0
-237 -793 0
-238 -794 0
-239 -795 0
-240 -796 0
-237 -817 0
-238 -818 0
-239 -819 0
-240 -820 0
-237 -925 0
-238 -926 0
-239 -927 0
-240 -928 0
-237 -1109 0
-238 -1110 0
-239 -1111 0
-240 -1112 0
-237 -1121 0
-238 -1122 0
-239 -1123 0
-240 -1124 0
-237 -1233 0
-238 -1234 0
-239 -1235 0
-240 -1236 0
-241 -265 0
-242 -266 0
-243 -267 0
-244 -268 0
-241 -289 0
-242 -290 0
-243 -291 0
-244 -292 0
-241 -389 0
-242 -390 0
-243 -391 0
-244 -392 0
-241 -493 0
-242 -494 0
-243 -495 0
-244 -496 0
-241 -549 0
-242 -550 0
-243 -551 0
-244 -552 0
-241 -601 0
-242 -602 0
-243 -603 0
-244 -604 0
-241 -641 0
-242 -642 0
-243 -643 0
-244 -644 0
-241 -797 0
-242 -798 0
-243 -799 0
-244 -800 0
-241 -821 0
-242 -822 0
-243 -823 0
-244 -824 0
-241 -933 0
-242 -934 0
-243 -935 0
-244 -936 0
-241 -1037 0
-242 -1038 0
-243 -1039 0
-244 -1040 0
-241 -1113 0
-242 -1114 0
-243 -1115 0
-244 -1116 0
-241 -1125 0
-242 -1126 0
-243 -1127 0
-244 -1128 0
-241 -1237 0
-242 -1238 0
-243 -1239 0
-244 -1240 0
-241 -1241 0
-242 -1242 0
-243 -1243 0
-244 -1244 0
-245 -269 0
-246 -270 0
-247 -271 0
-248 -272 0
-245 -365 0
-246 -366 0
-247 -367 0
-248 -368 0
-245 -393 0
-246 -394 0
-247 -395 0
-248 -396 0
-245 -553 0
-246 -554 0
-247 -555 0
-248 -556 0
-245 -573 0
-246 -574 0
-247 -575 0
-248 -576 0
-245 -605 0
-246 -606 0
-247 -607 0
-248 -608 0
-245 -649 0
-246 -650 0
-247 -651 0
-248 -652 0
-245 -801 0
-246 -802 0
-247 -803 0
-248 -804 0
-245 -825 0
-246 -826 0
-247 -827 0
-248 -828 0
-245 -941 0
-246 -942 0
-247 -943 0
-248 -944 0
-245 -961 0
-246 -962 0
-247 -963 0
-248 -964 0
-245 -1041 0
-246 -1042 0
-247 -1043 0
-248 -1044 0
-245 -1045 0
-246 -1046 0
-247 -1047 0
-248 -1048 0
-245 -1117 0
-246 -1118 0
-247 -1119 0
-248 -1120 0
-245 -1129 0
-246 -1130 0
-247 -1131 0
-248 -1132 0
-245 -1185 0
-246 -1186 0
-247 -1187 0
-248 -1188 0
-245 -1189 0
-246 -1190 0
-247 -1191 0
-248 -1192 0
-245 -1241 0
-246 -1242 0
-247 -1243 0
-248 -1244 0
-245 -1245 0
-246 -1246 0
-247 -1247 0
-248 -1248 0
-249 -273 0
-250 -274 0
-251 -275 0
-252 -276 0
-249 -369 0
-250 -370 0
-251 -371 0
-252 -372 0
-249 -465 0
-250 -466 0
-251 -467 0
-252 -468 0
-249 -577 0
-250 -578 0
-251 -579 0
-252 -580 0
-249 -613 0
-250 -614 0
-251 -615 0
-252 -616 0
-249 -653 0
-250 -654 0
-251 -655 0
-252 -656 0
-249 -805 0
-250 -806 0
-251 -807 0
-252 -808 0
-249 -829 0
-250 -830 0
-251 -831 0
-252 -832 0
-249 -969 0
-250 -970 0
-251 -971 0
-252 -972 0
-249 -1049 0
-250 -1050 0
-251 -1051 0
-252 -1052 0
-249 -1121 0
-250 -1122 0
-251 -1123 0
-252 -1124 0
-249 -1133 0
-250 -1134 0
-251 -1135 0
-252 -1136 0
-249 -1245 0
-250 -1246 0
-251 -1247 0
-252 -1248 0
-249 -1249 0
-250 -1250 0
-251 -1251 0
-252 -1252 0
-253 -277 0
-254 -278 0
-255 -279 0
-256 -280 0
-253 -397 0
-254 -398 0
-255 -399 0
-256 -400 0
-253 -501 0
-254 -502 0
-255 -503 0
-256 -504 0
-253 -557 0
-254 -558 0
-255 -559 0
-256 -560 0
-253 -621 0
-254 -622 0
-255 -623 0
-256 -624 0
-253 -809 0
-254 -810 0
-255 -811 0
-256 -812 0
-253 -833 0
-254 -834 0
-255 -835 0
-256 -836 0
-253 -977 0
-254 -978 0
-255 -979 0
-256 -980 0
-253 -1125 0
-254 -1126 0
-255 -1127 0
-256 -1128 0
-253 -1137 0
-254 -1138 0
-255 -1139 0
-256 -1140 0
-253 -1253 0
-254 -1254 0
-255 -1255 0
-256 -1256 0
-257 -281 0
-258 -282 0
-259 -283 0
-260 -284 0
-257 -373 0
-258 -374 0
-259 -375 0
-260 -376 0
-257 -401 0
-258 -402 0
-259 -403 0
-260 -404 0
-257 -473 0
-258 -474 0
-259 -475 0
-260 -476 0
-257 -505 0
-258 -506 0
-259 -507 0
-260 -508 0
-257 -561 0
-258 -562 0
-259 -563 0
-260 -564 0
-257 -581 0
-258 -582 0
-259 -583 0
-260 -584 0
-257 -625 0
-258 -626 0
-259 -627 0
-260 -628 0
-257 -661 0
-258 -662 0
-259 -663 0
-260 -664 0
-257 -813 0
-258 -814 0
-259 -815 0
-260 -816 0
-257 -837 0
-258 -838 0
-259 -839 0
-260 -840 0
-257 -953 0
-258 -954 0
-259 -955 0
-260 -956 0
-257 -981 0
-258 -982 0
-259 -983 0
-260 -984 0
-257 -1129 0
-258 -1130 0
-259 -1131 0
-260 -1132 0
-257 -1141 0
-258 -1142 0
-259 -1143 0
-260 -1144 0
-257 -1193 0
-258 -1194 0
-259 -1195 0
-260 -1196 0
-257 -1197 0
-258 -1198 0
-259 -1199 0
-260 -1200 0
-257 -1253 0
-258 -1254 0
-259 -1255 0
-260 -1256 0
-257 -1257 0
-258 -1258 0
-259 -1259 0
-260 -1260 0
-261 -285 0
-262 -286 0
-263 -287 0
-264 -288 0
-261 -377 0
-262 -378 0
-263 -379 0
-264 -380 0
-261 -477 0
-262 -478 0
-263 -479 0
-264 -480 0
-261 -585 0
-262 -586 0
-263 -587 0
-264 -588 0
-261 -665 0
-262 -666 0
-263 -667 0
-264 -668 0
-261 -817 0
-262 -818 0
-263 -819 0
-264 -820 0
-261 -841 0
-262 -842 0
-263 -843 0
-264 -844 0
-261 -957 0
-262 -958 0
-263 -959 0
-264 -960 0
-261 -1133 0
-262 -1134 0
-263 -1135 0
-264 -1136 0
-261 -1145 0
-262 -1146 0
-263 -1147 0
-264 -1148 0
-261 -1257 0
-262 -1258 0
-263 -1259 0
-264 -1260 0
-265 -289 0
-266 -290 0
-267 -291 0
-268 -292 0
-265 -405 0
-266 -406 0
-267 -407 0
-268 -408 0
-265 -513 0
-266 -514 0
-267 -515 0
-268 -516 0
-265 -565 0
-266 -566 0
-267 -567 0
-268 -568 0
-265 -633 0
-266 -634 0
-267 -635 0
-268 -636 0
-265 -673 0
-266 -674 0
-267 -675 0
-268 -676 0
-265 -821 0
-266 -822 0
-267 -823 0
-268 -824 0
-265 -845 0
-266 -846 0
-267 -847 0
-268 -848 0
-265 -965 0
-266 -966 0
-267 -967 0
-268 -968 0
-265 -1053 0
-266 -1054 0
-267 -1055 0
-268 -1056 0
-265 -1137 0
-266 -1138 0
-267 -1139 0
-268 -1140 0
-265 -1149 0
-266 -1150 0
-267 -1151 0
-268 -1152 0
-265 -1261 0
-266 -1262 0
-267 -1263 0
-268 -1264 0
-265 -1265 0
-266 -1266 0
-267 -1267 0
-268 -1268 0
-269 -381 0
-270 -382 0
-271 -383 0
-272 -384 0
-269 -409 0
-270 -410 0
-271 -411 0
-272 -412 0
-269 -569 0
-270 -570 0
-271 -571 0
-272 -572 0
-269 -589 0
-270 -590 0
-271 -591 0
-272 -592 0
-269 -637 0
-270 -638 0
-271 -639 0
-272 -640 0
-269 -681 0
-270 -682 0
-271 -683 0
-272 -684 0
-269 -825 0
-270 -826 0
-271 -827 0
-272 -828 0
-269 -849 0
-270 -850 0
-271 -851 0
-272 -852 0
-269 -973 0
-270 -974 0
-271 -975 0
-272 -976 0
-269 -993 0
-270 -994 0
-271 -995 0
-272 -996 0
-269 -1057 0
-270 -1058 0
-271 -1059 0
-272 -1060 0
-269 -1061 0
-270 -1062 0
-271 -1063 0
-272 -1064 0
-269 -1141 0
-270 -1142 0
-271 -1143 0
-272 -1144 0
-269 -1153 0
-270 -1154 0
-271 -1155 0
-272 -1156 0
-269 -1201 0
-270 -1202 0
-271 -1203 0
-272 -1204 0
-269 -1205 0
-270 -1206 0
-271 -1207 0
-272 -1208 0
-269 -1265 0
-270 -1266 0
-271 -1267 0
-272 -1268 0
-269 -1269 0
-270 -1270 0
-271 -1271 0
-272 -1272 0
-273 -385 0
-274 -386 0
-275 -387 0
-276 -388 0
-273 -489 0
-274 -490 0
-275 -491 0
-276 -492 0
-273 -593 0
-274 -594 0
-275 -595 0
-276 -596 0
-273 -645 0
-274 -646 0
-275 -647 0
-276 -648 0
-273 -685 0
-274 -686 0
-275 -687 0
-276 -688 0
-273 -829 0
-274 -830 0
-275 -831 0
-276 -832 0
-273 -853 0
-274 -854 0
-275 -855 0
-276 -856 0
-273 -1001 0
-274 -1002 0
-275 -1003 0
-276 -1004 0
-273 -1065 0
-274 -1066 0
-275 -1067 0
-276 -1068 0
-273 -1145 0
-274 -1146 0
-275 -1147 0
-276 -1148 0
-273 -1157 0
-274 -1158 0
-275 -1159 0
-276 -1160 0
-273 -1269 0
-274 -1270 0
-275 -1271 0
-276 -1272 0
-273 -1273 0
-274 -1274 0
-275 -1275 0
-276 -1276 0
-277 -365 0
-278 -366 0
-279 -367 0
-280 -368 0
-277 -573 0
-278 -574 0
-279 -575 0
-280 -576 0
-277 -653 0
-278 -654 0
-279 -655 0
-280 -656 0
-277 -833 0
-278 -834 0
-279 -835 0
-280 -836 0
-277 -857 0
-278 -858 0
-279 -859 0
-280 -860 0
-277 -1009 0
-278 -1010 0
-279 -1011 0
-280 -1012 0
-277 -1149 0
-278 -1150 0
-279 -1151 0
-280 -1152 0
-277 -1161 0
-278 -1162 0
-279 -1163 0
-280 -1164 0
-277 -1277 0
-278 -1278 0
-279 -1279 0
-280 -1280 0
-281 -369 0
-282 -370 0
-283 -371 0
-284 -372 0
-281 -389 0
-282 -390 0
-283 -391 0
-284 -392 0
-281 -461 0
-282 -462 0
-283 -463 0
-284 -464 0
-281 -497 0
-282 -498 0
-283 -499 0
-284 -500 0
-281 -549 0
-282 -550 0
-283 -551 0
-284 -552 0
-281 -577 0
-282 -578 0
-283 -579 0
-284 -580 0
-281 -597 0
-282 -598 0
-283 -599 0
-284 -600 0
-281 -657 0
-282 -658 0
-283 -659 0
-284 -660 0
-281 -789 0
-282 -790 0
-283 -791 0
-284 -792 0
-281 -837 0
-282 -838 0
-283 -839 0
-284 -840 0
-281 -985 0
-282 -986 0
-283 -987 0
-284 -988 0
-281 -1013 0
-282 -1014 0
-283 -1015 0
-284 -1016 0
-281 -1153 0
-282 -1154 0
-283 -1155 0
-284 -1156 0
-281 -1165 0
-282 -1166 0
-283 -1167 0
-284 -1168 0
-281 -1209 0
-282 -1210 0
-283 -1211 0
-284 -1212 0
-281 -1213 0
-282 -1214 0
-283 -1215 0
-284 -1216 0
-281 -1277 0
-282 -1278 0
-283 -1279 0
-284 -1280 0
-281 -1281 0
-282 -1282 0
-283 -1283 0
-284 -1284 0
-285 -393 0
-286 -394 0
-287 -395 0
-288 -396 0
-285 -553 0
-286 -554 0
-287 -555 0
-288 -556 0
-285 -601 0
-286 -602 0
-287 -603 0
-288 -604 0
-285 -793 0
-286 -794 0
-287 -795 0
-288 -796 0
-285 -841 0
-286 -842 0
-287 -843 0
-288 -844 0
-285 -989 0
-286 -990 0
-287 -991 0
-288 -992 0
-285 -1157 0
-286 -1158 0
-287 -1159 0
-288 -1160 0
-285 -1169 0
-286 -1170 0
-287 -1171 0
-288 -1172 0
-285 -1281 0
-286 -1282 0
-287 -1283 0
-288 -1284 0
-289 -373 0
-290 -374 0
-291 -375 0
-292 -376 0
-289 -469 0
-290 -470 0
-291 -471 0
-292 -472 0
-289 -581 0
-290 -582 0
-291 -583 0
-292 -584 0
-289 -609 0
-290 -610 0
-291 -611 0
-292 -612 0
-289 -665 0
-290 -666 0
-291 -667 0
-292 -668 0
-289 -797 0
-290 -798 0
-291 -799 0
-292 -800 0
-289 -845 0
-290 -846 0
-291 -847 0
-292 -848 0
-289 -997 0
-290 -998 0
-291 -999 0
-292 -1000 0
-289 -1069 0
-290 -1070 0
-291 -1071 0
-292 -1072 0
-289 -1101 0
-290 -1102 0
-291 -1103 0
-292 -1104 0
-289 -1161 0
-290 -1162 0
-291 -1163 0
-292 -1164 0
-289 -1285 0
-290 -1286 0
-291 -1287 0
-292 -1288 0
-289 -1289 0
-290 -1290 0
-291 -1291 0
-292 -1292 0
-293 -357 0
-294 -358 0
-295 -359 0
-296 -360 0
-293 -429 0
-294 -430 0
-295 -431 0
-296 -432 0
-293 -533 0
-294 -534 0
-295 -535 0
-296 -536 0
-293 -737 0
-294 -738 0
-295 -739 0
-296 -740 0
-293 -869 0
-294 -870 0
-295 -871 0
-296 -872 0
-293 -1041 0
-294 -1042 0
-295 -1043 0
-296 -1044 0
-293 -1173 0
-294 -1174 0
-295 -1175 0
-296 -1176 0
-293 -1225 0
-294 -1226 0
-295 -1227 0
-296 -1228 0
-297 -337 0
-298 -338 0
-299 -339 0
-300 -340 0
-297 -457 0
-298 -458 0
-299 -459 0
-300 -460 0
-297 -545 0
-298 -546 0
-299 -547 0
-300 -548 0
-297 -709 0
-298 -710 0
-299 -711 0
-300 -712 0
-297 -1029 0
-298 -1030 0
-299 -1031 0
-300 -1032 0
-297 -1185 0
-298 -1186 0
-299 -1187 0
-300 -1188 0
-297 -1237 0
-298 -1238 0
-299 -1239 0
-300 -1240 0
-301 -325 0
-302 -326 0
-303 -327 0
-304 -328 0
-301 -445 0
-302 -446 0
-303 -447 0
-304 -448 0
-301 -541 0
-302 -542 0
-303 -543 0
-304 -544 0
-301 -705 0
-302 -706 0
-303 -707 0
-304 -708 0
-301 -861 0
-302 -862 0
-303 -863 0
-304 -864 0
-301 -1057 0
-302 -1058 0
-303 -1059 0
-304 -1060 0
-301 -1189 0
-302 -1190 0
-303 -1191 0
-304 -1192 0
-301 -1249 0
-302 -1250 0
-303 -1251 0
-304 -1252 0
-305 -353 0
-306 -354 0
-307 -355 0
-308 -356 0
-305 -425 0
-306 -426 0
-307 -427 0
-308 -428 0
-305 -529 0
-306 -530 0
-307 -531 0
-308 -532 0
-305 -725 0
-306 -726 0
-307 -727 0
-308 -728 0
-305 -1045 0
-306 -1046 0
-307 -1047 0
-308 -1048 0
-305 -1201 0
-306 -1202 0
-307 -1203 0
-308 -1204 0
-305 -1261 0
-306 -1262 0
-307 -1263 0
-308 -1264 0
-309 -341 0
-310 -342 0
-311 -343 0
-312 -344 0
-309 -413 0
-310 -414 0
-311 -415 0
-312 -416 0
-309 -525 0
-310 -526 0
-311 -527 0
-312 -528 0
-309 -721 0
-310 -722 0
-311 -723 0
-312 -724 0
-309 -865 0
-310 -866 0
-311 -867 0
-312 -868 0
-309 -1073 0
-310 -1074 0
-311 -1075 0
-312 -1076 0
-309 -1205 0
-310 -1206 0
-311 -1207 0
-312 -1208 0
-309 -1273 0
-310 -1274 0
-311 -1275 0
-312 -1276 0
-313 -321 0
-314 -322 0
-315 -323 0
-316 -324 0
-313 -441 0
-314 -442 0
-315 -443 0
-316 -444 0
-313 -537 0
-314 -538 0
-315 -539 0
-316 -540 0
-313 -693 0
-314 -694 0
-315 -695 0
-316 -696 0
-313 -1061 0
-314 -1062 0
-315 -1063 0
-316 -1064 0
-313 -1217 0
-314 -1218 0
-315 -1219 0
-316 -1220 0
-313 -1285 0
-314 -1286 0
-315 -1287 0
-316 -1288 0
-317 -449 0
-318 -450 0
-319 -451 0
-320 -452 0
-317 -509 0
-318 -510 0
-319 -511 0
-320 -512 0
-317 -749 0
-318 -750 0
-319 -751 0
-320 -752 0
-317 -781 0
-318 -782 0
-319 -783 0
-320 -784 0
-317 -1109 0
-318 -1110 0
-319 -1111 0
-320 -1112 0
-317 -1165 0
-318 -1166 0
-319 -1167 0
-320 -1168 0
-317 -1177 0
-318 -1178 0
-319 -1179 0
-320 -1180 0
-317 -1293 0
-318 -1294 0
-319 -1295 0
-320 -1296 0
-321 -429 0
-322 -430 0
-323 -431 0
-324 -432 0
-321 -481 0
-322 -482 0
-323 -483 0
-324 -484 0
-321 -517 0
-322 -518 0
-323 -519 0
-324 -520 0
-321 -753 0
-322 -754 0
-323 -755 0
-324 -756 0
-321 -785 0
-322 -786 0
-323 -787 0
-324 -788 0
-321 -1101 0
-322 -1102 0
-323 -1103 0
-324 -1104 0
-321 -1117 0
-322 -1118 0
-323 -1119 0
-324 -1120 0
-321 -1173 0
-322 -1174 0
-323 -1175 0
-324 -1176 0
-325 -457 0
-326 -458 0
-327 -459 0
-328 -460 0
-325 -485 0
-326 -486 0
-327 -487 0
-328 -488 0
-325 -521 0
-326 -522 0
-327 -523 0
-328 -524 0
-325 -741 0
-326 -742 0
-327 -743 0
-328 -744 0
-325 -757 0
-326 -758 0
-327 -759 0
-328 -760 0
-325 -1105 0
-326 -1106 0
-327 -1107 0
-328 -1108 0
-325 -1121 0
-326 -1122 0
-327 -1123 0
-328 -1124 0
-325 -1185 0
-326 -1186 0
-327 -1187 0
-328 -1188 0
-329 -437 0
-330 -438 0
-331 -439 0
-332 -440 0
-329 -493 0
-330 -494 0
-331 -495 0
-332 -496 0
-329 -745 0
-330 -746 0
-331 -747 0
-332 -748 0
-329 -761 0
-330 -762 0
-331 -763 0
-332 -764 0
-329 -1113 0
-330 -1114 0
-331 -1115 0
-332 -1116 0
-329 -1129 0
-330 -1130 0
-331 -1131 0
-332 -1132 0
-329 -1181 0
-330 -1182 0
-331 -1183 0
-332 -1184 0
-329 -1297 0
-330 -1298 0
-331 -1299 0
-332 -1300 0
-333 -417 0
-334 -418 0
-335 -419 0
-336 -420 0
-333 -465 0
-334 -466 0
-335 -467 0
-336 -468 0
-333 -749 0
-334 -750 0
-335 -751 0
-336 -752 0
-333 -765 0
-334 -766 0
-335 -767 0
-336 -768 0
-333 -1117 0
-334 -1118 0
-335 -1119 0
-336 -1120 0
-333 -1133 0
-334 -1134 0
-335 -1135 0
-336 -1136 0
-333 -1193 0
-334 -1194 0
-335 -1195 0
-336 -1196 0
-333 -1301 0
-334 -1302 0
-335 -1303 0
-336 -1304 0
-337 -445 0
-338 -446 0
-339 -447 0
-340 -448 0
-337 -473 0
-338 -474 0
-339 -475 0
-340 -476 0
-337 -501 0
-338 -502 0
-339 -503 0
-340 -504 0
-337 -753 0
-338 -754 0
-339 -755 0
-340 -756 0
-337 -769 0
-338 -770 0
-339 -771 0
-340 -772 0
-337 -1125 0
-338 -1126 0
-339 -1127 0
-340 -1128 0
-337 -1141 0
-338 -1142 0
-339 -1143 0
-340 -1144 0
-337 -1189 0
-338 -1190 0
-339 -1191 0
-340 -1192 0
-341 -425 0
-342 -426 0
-343 -427 0
-344 -428 0
-341 -477 0
-342 -478 0
-343 -479 0
-344 -480 0
-341 -505 0
-342 -506 0
-343 -507 0
-344 -508 0
-341 -757 0
-342 -758 0
-343 -759 0
-344 -760 0
-341 -773 0
-342 -774 0
-343 -775 0
-344 -776 0
-341 -1129 0
-342 -1130 0
-343 -1131 0
-344 -1132 0
-341 -1145 0
-342 -1146 0
-343 -1147 0
-344 -1148 0
-341 -1201 0
-342 -1202 0
-343 -1203 0
-344 -1204 0
-345 -453 0
-346 -454 0
-347 -455 0
-348 -456 0
-345 -513 0
-346 -514 0
-347 -515 0
-348 -516 0
-345 -761 0
-346 -762 0
-347 -763 0
-348 -764 0
-345 -777 0
-346 -778 0
-347 -779 0
-348 -780 0
-345 -1137 0
-346 -1138 0
-347 -1139 0
-348 -1140 0
-345 -1153 0
-346 -1154 0
-347 -1155 0
-348 -1156 0
-345 -1197 0
-346 -1198 0
-347 -1199 0
-348 -1200 0
-345 -1305 0
-346 -1306 0
-347 -1307 0
-348 -1308 0
-349 -433 0
-350 -434 0
-351 -435 0
-352 -436 0
-349 -489 0
-350 -490 0
-351 -491 0
-352 -492 0
-349 -765 0
-350 -766 0
-351 -767 0
-352 -768 0
-349 -781 0
-350 -782 0
-351 -783 0
-352 -784 0
-349 -1141 0
-350 -1142 0
-351 -1143 0
-352 -1144 0
-349 -1157 0
-350 -1158 0
-351 -1159 0
-352 -1160 0
-349 -1209 0
-350 -1210 0
-351 -1211 0
-352 -1212 0
-349 -1309 0
-350 -1310 0
-351 -1311 0
-352 -1312 0
-353 -413 0
-354 -414 0
-355 -415 0
-356 -416 0
-353 -497 0
-354 -498 0
-355 -499 0
-356 -500 0
-353 -769 0
-354 -770 0
-355 -771 0
-356 -772 0
-353 -785 0
-354 -786 0
-355 -787 0
-356 -788 0
-353 -1149 0
-354 -1150 0
-355 -1151 0
-356 -1152 0
-353 -1165 0
-354 -1166 0
-355 -1167 0
-356 -1168 0
-353 -1205 0
-354 -1206 0
-355 -1207 0
-356 -1208 0
-357 -441 0
-358 -442 0
-359 -443 0
-360 -444 0
-357 -461 0
-358 -462 0
-359 -463 0
-360 -464 0
-357 -741 0
-358 -742 0
-359 -743 0
-360 -744 0
-357 -773 0
-358 -774 0
-359 -775 0
-360 -776 0
-357 -1153 0
-358 -1154 0
-359 -1155 0
-360 -1156 0
-357 -1169 0
-358 -1170 0
-359 -1171 0
-360 -1172 0
-357 -1217 0
-358 -1218 0
-359 -1219 0
-360 -1220 0
-361 -421 0
-362 -422 0
-363 -423 0
-364 -424 0
-361 -469 0
-362 -470 0
-363 -471 0
-364 -472 0
-361 -745 0
-362 -746 0
-363 -747 0
-364 -748 0
-361 -777 0
-362 -778 0
-363 -779 0
-364 -780 0
-361 -1105 0
-362 -1106 0
-363 -1107 0
-364 -1108 0
-361 -1161 0
-362 -1162 0
-363 -1163 0
-364 -1164 0
-361 -1213 0
-362 -1214 0
-363 -1215 0
-364 -1216 0
-361 -1313 0
-362 -1314 0
-363 -1315 0
-364 -1316 0
-365 -621 0
-366 -622 0
-367 -623 0
-368 -624 0
-365 -681 0
-366 -682 0
-367 -683 0
-368 -684 0
-365 -941 0
-366 -942 0
-367 -943 0
-368 -944 0
-365 -1009 0
-366 -1010 0
-367 -1011 0
-368 -1012 0
-365 -1229 0
-366 -1230 0
-367 -1231 0
-368 -1232 0
-365 -1289 0
-366 -1290 0
-367 -1291 0
-368 -1292 0
-365 -1317 0
-366 -1318 0
-367 -1319 0
-368 -1320 0
-369 -625 0
-370 -626 0
-371 -627 0
-372 -628 0
-369 -685 0
-370 -686 0
-371 -687 0
-372 -688 0
-369 -1013 0
-370 -1014 0
-371 -1015 0
-372 -1016 0
-369 -1221 0
-370 -1222 0
-371 -1223 0
-372 -1224 0
-369 -1233 0
-370 -1234 0
-371 -1235 0
-372 -1236 0
-369 -1321 0
-370 -1322 0
-371 -1323 0
-372 -1324 0
-373 -597 0
-374 -598 0
-375 -599 0
-376 -600 0
-373 -633 0
-374 -634 0
-375 -635 0
-376 -636 0
-373 -953 0
-374 -954 0
-375 -955 0
-376 -956 0
-373 -1229 0
-374 -1230 0
-375 -1231 0
-376 -1232 0
-373 -1241 0
-374 -1242 0
-375 -1243 0
-376 -1244 0
-373 -1325 0
-374 -1326 0
-375 -1327 0
-376 -1328 0
-377 -601 0
-378 -602 0
-379 -603 0
-380 -604 0
-377 -637 0
-378 -638 0
-379 -639 0
-380 -640 0
-377 -929 0
-378 -930 0
-379 -931 0
-380 -932 0
-377 -957 0
-378 -958 0
-379 -959 0
-380 -960 0
-377 -1233 0
-378 -1234 0
-379 -1235 0
-380 -1236 0
-377 -1245 0
-378 -1246 0
-379 -1247 0
-380 -1248 0
-377 -1329 0
-378 -1330 0
-379 -1331 0
-380 -1332 0
-381 -617 0
-382 -618 0
-383 -619 0
-384 -620 0
-381 -653 0
-382 -654 0
-383 -655 0
-384 -656 0
-381 -945 0
-382 -946 0
-383 -947 0
-384 -948 0
-381 -973 0
-382 -974 0
-383 -975 0
-384 -976 0
-381 -1241 0
-382 -1242 0
-383 -1243 0
-384 -1244 0
-381 -1253 0
-382 -1254 0
-383 -1255 0
-384 -1256 0
-381 -1333 0
-382 -1334 0
-383 -1335 0
-384 -1336 0
-385 -621 0
-386 -622 0
-387 -623 0
-388 -624 0
-385 -657 0
-386 -658 0
-387 -659 0
-388 -660 0
-385 -949 0
-386 -950 0
-387 -951 0
-388 -952 0
-385 -1245 0
-386 -1246 0
-387 -1247 0
-388 -1248 0
-385 -1257 0
-386 -1258 0
-387 -1259 0
-388 -1260 0
-385 -1337 0
-386 -1338 0
-387 -1339 0
-388 -1340 0
-389 -629 0
-390 -630 0
-391 -631 0
-392 -632 0
-389 -665 0
-390 -666 0
-391 -667 0
-392 -668 0
-389 -985 0
-390 -986 0
-391 -987 0
-392 -988 0
-389 -1253 0
-390 -1254 0
-391 -1255 0
-392 -1256 0
-389 -1265 0
-390 -1266 0
-391 -1267 0
-392 -1268 0
-389 -1341 0
-390 -1342 0
-391 -1343 0
-392 -1344 0
-393 -633 0
-394 -634 0
-395 -635 0
-396 -636 0
-393 -669 0
-394 -670 0
-395 -671 0
-396 -672 0
-393 -961 0
-394 -962 0
-395 -963 0
-396 -964 0
-393 -989 0
-394 -990 0
-395 -991 0
-396 -992 0
-393 -1257 0
-394 -1258 0
-395 -1259 0
-396 -1260 0
-393 -1269 0
-394 -1270 0
-395 -1271 0
-396 -1272 0
-393 -1345 0
-394 -1346 0
-395 -1347 0
-396 -1348 0
-397 -649 0
-398 -650 0
-399 -651 0
-400 -652 0
-397 -685 0
-398 -686 0
-399 -687 0
-400 -688 0
-397 -977 0
-398 -978 0
-399 -979 0
-400 -980 0
-397 -1005 0
-398 -1006 0
-399 -1007 0
-400 -1008 0
-397 -1265 0
-398 -1266 0
-399 -1267 0
-400 -1268 0
-397 -1277 0
-398 -1278 0
-399 -1279 0
-400 -1280 0
-397 -1349 0
-398 -1350 0
-399 -1351 0
-400 -1352 0
-401 -653 0
-402 -654 0
-403 -655 0
-404 -656 0
-401 -689 0
-402 -690 0
-403 -691 0
-404 -692 0
-401 -981 0
-402 -982 0
-403 -983 0
-404 -984 0
-401 -1269 0
-402 -1270 0
-403 -1271 0
-404 -1272 0
-401 -1281 0
-402 -1282 0
-403 -1283 0
-404 -1284 0
-401 -1353 0
-402 -1354 0
-403 -1355 0
-404 -1356 0
-405 -601 0
-406 -602 0
-407 -603 0
-408 -604 0
-405 -661 0
-406 -662 0
-407 -663 0
-408 -664 0
-405 -921 0
-406 -922 0
-407 -923 0
-408 -924 0
-405 -1277 0
-406 -1278 0
-407 -1279 0
-408 -1280 0
-405 -1289 0
-406 -1290 0
-407 -1291 0
-408 -1292 0
-405 -1357 0
-406 -1358 0
-407 -1359 0
-408 -1360 0
-409 -605 0
-410 -606 0
-411 -607 0
-412 -608 0
-409 -665 0
-410 -666 0
-411 -667 0
-412 -668 0
-409 -925 0
-410 -926 0
-411 -927 0
-412 -928 0
-409 -993 0
-410 -994 0
-411 -995 0
-412 -996 0
-409 -1221 0
-410 -1222 0
-411 -1223 0
-412 -1224 0
-409 -1281 0
-410 -1282 0
-411 -1283 0
-412 -1284 0
-409 -1361 0
-410 -1362 0
-411 -1363 0
-412 -1364 0
-413 -425 0
-414 -426 0
-415 -427 0
-416 -428 0
-413 -701 0
-414 -702 0
-415 -703 0
-416 -704 0
-413 -805 0
-414 -806 0
-415 -807 0
-416 -808 0
-413 -1293 0
-414 -1294 0
-415 -1295 0
-416 -1296 0
-417 -453 0
-418 -454 0
-419 -455 0
-420 -456 0
-417 -737 0
-418 -738 0
-419 -739 0
-420 -740 0
-417 -857 0
-418 -858 0
-419 -859 0
-420 -860 0
-421 -433 0
-422 -434 0
-423 -435 0
-424 -436 0
-421 -709 0
-422 -710 0
-423 -711 0
-424 -712 0
-421 -817 0
-422 -818 0
-423 -819 0
-424 -820 0
-425 -697 0
-426 -698 0
-427 -699 0
-428 -700 0
-425 -797 0
-426 -798 0
-427 -799 0
-428 -800 0
-425 -1297 0
-426 -1298 0
-427 -1299 0
-428 -1300 0
-429 -441 0
-430 -442 0
-431 -443 0
-432 -444 0
-429 -717 0
-430 -718 0
-431 -719 0
-432 -720 0
-429 -829 0
-430 -830 0
-431 -831 0
-432 -832 0
-429 -1301 0
-430 -1302 0
-431 -1303 0
-432 -1304 0
-433 -705 0
-434 -706 0
-435 -707 0
-436 -708 0
-433 -809 0
-434 -810 0
-435 -811 0
-436 -812 0
-437 -449 0
-438 -450 0
-439 -451 0
-440 -452 0
-437 -725 0
-438 -726 0
-439 -727 0
-440 -728 0
-437 -841 0
-438 -842 0
-439 -843 0
-440 -844 0
-441 -713 0
-442 -714 0
-443 -715 0
-444 -716 0
-441 -821 0
-442 -822 0
-443 -823 0
-444 -824 0
-441 -1305 0
-442 -1306 0
-443 -1307 0
-444 -1308 0
-445 -457 0
-446 -458 0
-447 -459 0
-448 -460 0
-445 -733 0
-446 -734 0
-447 -735 0
-448 -736 0
-445 -853 0
-446 -854 0
-447 -855 0
-448 -856 0
-445 -1309 0
-446 -1310 0
-447 -1311 0
-448 -1312 0
-449 -721 0
-450 -722 0
-451 -723 0
-452 -724 0
-449 -833 0
-450 -834 0
-451 -835 0
-452 -836 0
-453 -693 0
-454 -694 0
-455 -695 0
-456 -696 0
-453 -793 0
-454 -794 0
-455 -795 0
-456 -796 0
-457 -729 0
-458 -730 0
-459 -731 0
-460 -732 0
-457 -845 0
-458 -846 0
-459 -847 0
-460 -848 0
-457 -1313 0
-458 -1314 0
-459 -1315 0
-460 -1316 0
-461 -561 0
-462 -562 0
-463 -563 0
-464 -564 0
-461 -881 0
-462 -882 0
-463 -883 0
-464 -884 0
-461 -1169 0
-462 -1170 0
-463 -1171 0
-464 -1172 0
-461 -1293 0
-462 -1294 0
-463 -1295 0
-464 -1296 0
-461 -1365 0
-462 -1366 0
-463 -1367 0
-464 -1368 0
-461 -1389 0
-462 -1390 0
-463 -1391 0
-464 -1392 0
-465 -593 0
-466 -594 0
-467 -595 0
-468 -596 0
-465 -861 0
-466 -862 0
-467 -863 0
-468 -864 0
-465 -1077 0
-466 -1078 0
-467 -1079 0
-468 -1080 0
-465 -1117 0
-466 -1118 0
-467 -1119 0
-468 -1120 0
-465 -1365 0
-466 -1366 0
-467 -1367 0
-468 -1368 0
-469 -565 0
-470 -566 0
-471 -567 0
-472 -568 0
-469 -1081 0
-470 -1082 0
-471 -1083 0
-472 -1084 0
-469 -1105 0
-470 -1106 0
-471 -1107 0
-472 -1108 0
-469 -1369 0
-470 -1370 0
-471 -1371 0
-472 -1372 0
-473 -549 0
-474 -550 0
-475 -551 0
-476 -552 0
-473 -877 0
-474 -878 0
-475 -879 0
-476 -880 0
-473 -1125 0
-474 -1126 0
-475 -1127 0
-476 -1128 0
-473 -1297 0
-474 -1298 0
-475 -1299 0
-476 -1300 0
-473 -1369 0
-474 -1370 0
-475 -1371 0
-476 -1372 0
-473 -1393 0
-474 -1394 0
-475 -1395 0
-476 -1396 0
-477 -553 0
-478 -554 0
-479 -555 0
-480 -556 0
-477 -1129 0
-478 -1130 0
-479 -1131 0
-480 -1132 0
-481 -573 0
-482 -574 0
-483 -575 0
-484 -576 0
-481 -1117 0
-482 -1118 0
-483 -1119 0
-484 -1120 0
-485 -577 0
-486 -578 0
-487 -579 0
-488 -580 0
-485 -897 0
-486 -898 0
-487 -899 0
-488 -900 0
-485 -1121 0
-486 -1122 0
-487 -1123 0
-488 -1124 0
-485 -1301 0
-486 -1302 0
-487 -1303 0
-488 -1304 0
-485 -1373 0
-486 -1374 0
-487 -1375 0
-488 -1376 0
-485 -1397 0
-486 -1398 0
-487 -1399 0
-488 -1400 0
-489 -561 0
-490 -562 0
-491 -563 0
-492 -564 0
-489 -865 0
-490 -866 0
-491 -867 0
-492 -868 0
-489 -1085 0
-490 -1086 0
-491 -1087 0
-492 -1088 0
-489 -1141 0
-490 -1142 0
-491 -1143 0
-492 -1144 0
-489 -1373 0
-490 -1374 0
-491 -1375 0
-492 -1376 0
-493 -581 0
-494 -582 0
-495 -583 0
-496 -584 0
-493 -1089 0
-494 -1090 0
-495 -1091 0
-496 -1092 0
-493 -1129 0
-494 -1130 0
-495 -1131 0
-496 -1132 0
-493 -1377 0
-494 -1378 0
-495 -1379 0
-496 -1380 0
-497 -565 0
-498 -566 0
-499 -567 0
-500 -568 0
-497 -893 0
-498 -894 0
-499 -895 0
-500 -896 0
-497 -1149 0
-498 -1150 0
-499 -1151 0
-500 -1152 0
-497 -1305 0
-498 -1306 0
-499 -1307 0
-500 -1308 0
-497 -1377 0
-498 -1378 0
-499 -1379 0
-500 -1380 0
-497 -1401 0
-498 -1402 0
-499 -1403 0
-500 -1404 0
-501 -589 0
-502 -590 0
-503 -591 0
-504 -592 0
-501 -1141 0
-502 -1142 0
-503 -1143 0
-504 -1144 0
-505 -593 0
-506 -594 0
-507 -595 0
-508 -596 0
-505 -913 0
-506 -914 0
-507 -915 0
-508 -916 0
-505 -1145 0
-506 -1146 0
-507 -1147 0
-508 -1148 0
-505 -1309 0
-506 -1310 0
-507 -1311 0
-508 -1312 0
-505 -1381 0
-506 -1382 0
-507 -1383 0
-508 -1384 0
-505 -1405 0
-506 -1406 0
-507 -1407 0
-508 -1408 0
-509 -577 0
-510 -578 0
-511 -579 0
-512 -580 0
-509 -869 0
-510 -870 0
-511 -871 0
-512 -872 0
-509 -1093 0
-510 -1094 0
-511 -1095 0
-512 -1096 0
-509 -1165 0
-510 -1166 0
-511 -1167 0
-512 -1168 0
-509 -1381 0
-510 -1382 0
-511 -1383 0
-512 -1384 0
-513 -549 0
-514 -550 0
-515 -551 0
-516 -552 0
-513 -1097 0
-514 -1098 0
-515 -1099 0
-516 -1100 0
-513 -1153 0
-514 -1154 0
-515 -1155 0
-516 -1156 0
-513 -1385 0
-514 -1386 0
-515 -1387 0
-516 -1388 0
-517 -581 0
-518 -582 0
-519 -583 0
-520 -584 0
-517 -909 0
-518 -910 0
-519 -911 0
-520 -912 0
-517 -1101 0
-518 -1102 0
-519 -1103 0
-520 -1104 0
-517 -1313 0
-518 -1314 0
-519 -1315 0
-520 -1316 0
-517 -1385 0
-518 -1386 0
-519 -1387 0
-520 -1388 0
-517 -1409 0
-518 -1410 0
-519 -1411 0
-520 -1412 0
-521 -585 0
-522 -586 0
-523 -587 0
-524 -588 0
-521 -1105 0
-522 -1106 0
-523 -1107 0
-524 -1108 0
-525 -617 0
-526 -618 0
-527 -619 0
-528 -620 0
-525 -677 0
-526 -678 0
-527 -679 0
-528 -680 0
-525 -1033 0
-526 -1034 0
-527 -1035 0
-528 -1036 0
-525 -1073 0
-526 -1074 0
-527 -1075 0
-528 -1076 0
-525 -1389 0
-526 -1390 0
-527 -1391 0
-528 -1392 0
-529 -605 0
-530 -606 0
-531 -607 0
-532 -608 0
-529 -641 0
-530 -642 0
-531 -643 0
-532 -644 0
-529 -1037 0
-530 -1038 0
-531 -1039 0
-532 -1040 0
-529 -1045 0
-530 -1046 0
-531 -1047 0
-532 -1048 0
-529 -1393 0
-530 -1394 0
-531 -1395 0
-532 -1396 0
-533 -613 0
-534 -614 0
-535 -615 0
-536 -616 0
-533 -649 0
-534 -650 0
-535 -651 0
-536 -652 0
-533 -1041 0
-534 -1042 0
-535 -1043 0
-536 -1044 0
-533 -1049 0
-534 -1050 0
-535 -1051 0
-536 -1052 0
-533 -1397 0
-534 -1398 0
-535 -1399 0
-536 -1400 0
-537 -637 0
-538 -638 0
-539 -639 0
-540 -640 0
-537 -673 0
-538 -674 0
-539 -675 0
-540 -676 0
-537 -1053 0
-538 -1054 0
-539 -1055 0
-540 -1056 0
-537 -1061 0
-538 -1062 0
-539 -1063 0
-540 -1064 0
-537 -1401 0
-538 -1402 0
-539 -1403 0
-540 -1404 0
-541 -645 0
-542 -646 0
-543 -647 0
-544 -648 0
-541 -681 0
-542 -682 0
-543 -683 0
-544 -684 0
-541 -1057 0
-542 -1058 0
-543 -1059 0
-544 -1060 0
-541 -1065 0
-542 -1066 0
-543 -1067 0
-544 -1068 0
-541 -1405 0
-542 -1406 0
-543 -1407 0
-544 -1408 0
-545 -609 0
-546 -610 0
-547 -611 0
-548 -612 0
-545 -669 0
-546 -670 0
-547 -671 0
-548 -672 0
-545 -1029 0
-546 -1030 0
-547 -1031 0
-548 -1032 0
-545 -1069 0
-546 -1070 0
-547 -1071 0
-548 -1072 0
-545 -1409 0
-546 -1410 0
-547 -1411 0
-548 -1412 0
-549 -701 0
-550 -702 0
-551 -703 0
-552 -704 0
-549 -733 0
-550 -734 0
-551 -735 0
-552 -736 0
-549 -941 0
-550 -942 0
-551 -943 0
-552 -944 0
-549 -1009 0
-550 -1010 0
-551 -1011 0
-552 -1012 0
-549 -1037 0
-550 -1038 0
-551 -1039 0
-552 -1040 0
-549 -1313 0
-550 -1314 0
-551 -1315 0
-552 -1316 0
-549 -1413 0
-550 -1414 0
-551 -1415 0
-552 -1416 0
-553 -705 0
-554 -706 0
-555 -707 0
-556 -708 0
-553 -737 0
-554 -738 0
-555 -739 0
-556 -740 0
-553 -1013 0
-554 -1014 0
-555 -1015 0
-556 -1016 0
-553 -1041 0
-554 -1042 0
-555 -1043 0
-556 -1044 0
-553 -1389 0
-554 -1390 0
-555 -1391 0
-556 -1392 0
-557 -693 0
-558 -694 0
-559 -695 0
-560 -696 0
-557 -709 0
-558 -710 0
-559 -711 0
-560 -712 0
-557 -953 0
-558 -954 0
-559 -955 0
-560 -956 0
-557 -1029 0
-558 -1030 0
-559 -1031 0
-560 -1032 0
-557 -1393 0
-558 -1394 0
-559 -1395 0
-560 -1396 0
-561 -697 0
-562 -698 0
-563 -699 0
-564 -700 0
-561 -713 0
-562 -714 0
-563 -715 0
-564 -716 0
-561 -929 0
-562 -930 0
-563 -931 0
-564 -932 0
-561 -957 0
-562 -958 0
-563 -959 0
-564 -960 0
-561 -1033 0
-562 -1034 0
-563 -1035 0
-564 -1036 0
-561 -1301 0
-562 -1302 0
-563 -1303 0
-564 -1304 0
-561 -1417 0
-562 -1418 0
-563 -1419 0
-564 -1420 0
-565 -701 0
-566 -702 0
-567 -703 0
-568 -704 0
-565 -717 0
-566 -718 0
-567 -719 0
-568 -720 0
-565 -945 0
-566 -946 0
-567 -947 0
-568 -948 0
-565 -973 0
-566 -974 0
-567 -975 0
-568 -976 0
-565 -1053 0
-566 -1054 0
-567 -1055 0
-568 -1056 0
-565 -1297 0
-566 -1298 0
-567 -1299 0
-568 -1300 0
-565 -1421 0
-566 -1422 0
-567 -1423 0
-568 -1424 0
-569 -705 0
-570 -706 0
-571 -707 0
-572 -708 0
-569 -721 0
-570 -722 0
-571 -723 0
-572 -724 0
-569 -949 0
-570 -950 0
-571 -951 0
-572 -952 0
-569 -1057 0
-570 -1058 0
-571 -1059 0
-572 -1060 0
-569 -1397 0
-570 -1398 0
-571 -1399 0
-572 -1400 0
-573 -709 0
-574 -710 0
-575 -711 0
-576 -712 0
-573 -725 0
-574 -726 0
-575 -727 0
-576 -728 0
-573 -985 0
-574 -986 0
-575 -987 0
-576 -988 0
-573 -1045 0
-574 -1046 0
-575 -1047 0
-576 -1048 0
-573 -1401 0
-574 -1402 0
-575 -1403 0
-576 -1404 0
-577 -713 0
-578 -714 0
-579 -715 0
-580 -716 0
-577 -729 0
-578 -730 0
-579 -731 0
-580 -732 0
-577 -961 0
-578 -962 0
-579 -963 0
-580 -964 0
-577 -989 0
-578 -990 0
-579 -991 0
-580 -992 0
-577 -1049 0
-578 -1050 0
-579 -1051 0
-580 -1052 0
-577 -1309 0
-578 -1310 0
-579 -1311 0
-580 -1312 0
-577 -1425 0
-578 -1426 0
-579 -1427 0
-580 -1428 0
-581 -717 0
-582 -718 0
-583 -719 0
-584 -720 0
-581 -733 0
-582 -734 0
-583 -735 0
-584 -736 0
-581 -977 0
-582 -978 0
-583 -979 0
-584 -980 0
-581 -1005 0
-582 -1006 0
-583 -1007 0
-584 -1008 0
-581 -1069 0
-582 -1070 0
-583 -1071 0
-584 -1072 0
-581 -1305 0
-582 -1306 0
-583 -1307 0
-584 -1308 0
-581 -1429 0
-582 -1430 0
-583 -1431 0
-584 -1432 0
-585 -721 0
-586 -722 0
-587 -723 0
-588 -724 0
-585 -737 0
-586 -738 0
-587 -739 0
-588 -740 0
-585 -981 0
-586 -982 0
-587 -983 0
-588 -984 0
-585 -1073 0
-586 -1074 0
-587 -1075 0
-588 -1076 0
-585 -1405 0
-586 -1406 0
-587 -1407 0
-588 -1408 0
-589 -693 0
-590 -694 0
-591 -695 0
-592 -696 0
-589 -725 0
-590 -726 0
-591 -727 0
-592 -728 0
-589 -921 0
-590 -922 0
-591 -923 0
-592 -924 0
-589 -1061 0
-590 -1062 0
-591 -1063 0
-592 -1064 0
-589 -1409 0
-590 -1410 0
-591 -1411 0
-592 -1412 0
-593 -697 0
-594 -698 0
-595 -699 0
-596 -700 0
-593 -729 0
-594 -730 0
-595 -731 0
-596 -732 0
-593 -925 0
-594 -926 0
-595 -927 0
-596 -928 0
-593 -993 0
-594 -994 0
-595 -995 0
-596 -996 0
-593 -1065 0
-594 -1066 0
-595 -1067 0
-596 -1068 0
-593 -1293 0
-594 -1294 0
-595 -1295 0
-596 -1296 0
-593 -1433 0
-594 -1434 0
-595 -1435 0
-596 -1436 0
-597 -617 0
-598 -618 0
-599 -619 0
-600 -620 0
-597 -681 0
-598 -682 0
-599 -683 0
-600 -684 0
-597 -749 0
-598 -750 0
-599 -751 0
-600 -752 0
-597 -913 0
-598 -914 0
-599 -915 0
-600 -916 0
-597 -1017 0
-598 -1018 0
-599 -1019 0
-600 -1020 0
-597 -1165 0
-598 -1166 0
-599 -1167 0
-600 -1168 0
-597 -1229 0
-598 -1230 0
-599 -1231 0
-600 -1232 0
-597 -1285 0
-598 -1286 0
-599 -1287 0
-600 -1288 0
-597 -1321 0
-598 -1322 0
-599 -1323 0
-600 -1324 0
-597 -1361 0
-598 -1362 0
-599 -1363 0
-600 -1364 0
-597 -1365 0
-598 -1366 0
-599 -1367 0
-600 -1368 0
-597 -1433 0
-598 -1434 0
-599 -1435 0
-600 -1436 0
-597 -1485 0
-598 -1486 0
-599 -1487 0
-600 -1488 0
-601 -621 0
-602 -622 0
-603 -623 0
-604 -624 0
-601 -685 0
-602 -686 0
-603 -687 0
-604 -688 0
-601 -881 0
-602 -882 0
-603 -883 0
-604 -884 0
-601 -917 0
-602 -918 0
-603 -919 0
-604 -920 0
-601 -1113 0
-602 -1114 0
-603 -1115 0
-604 -1116 0
-601 -1169 0
-602 -1170 0
-603 -1171 0
-604 -1172 0
-601 -1233 0
-602 -1234 0
-603 -1235 0
-604 -1236 0
-601 -1289 0
-602 -1290 0
-603 -1291 0
-604 -1292 0
-601 -1413 0
-602 -1414 0
-603 -1415 0
-604 -1416 0
-601 -1449 0
-602 -1450 0
-603 -1451 0
-604 -1452 0
-605 -625 0
-606 -626 0
-607 -627 0
-608 -628 0
-605 -689 0
-606 -690 0
-607 -691 0
-608 -692 0
-605 -785 0
-606 -786 0
-607 -787 0
-608 -788 0
-605 -885 0
-606 -886 0
-607 -887 0
-608 -888 0
-605 -1117 0
-606 -1118 0
-607 -1119 0
-608 -1120 0
-605 -1221 0
-606 -1222 0
-607 -1223 0
-608 -1224 0
-605 -1317 0
-606 -1318 0
-607 -1319 0
-608 -1320 0
-605 -1325 0
-606 -1326 0
-607 -1327 0
-608 -1328 0
-605 -1437 0
-606 -1438 0
-607 -1439 0
-608 -1440 0
-605 -1449 0
-606 -1450 0
-607 -1451 0
-608 -1452 0
-605 -1489 0
-606 -1490 0
-607 -1491 0
-608 -1492 0
-609 -753 0
-610 -754 0
-611 -755 0
-612 -756 0
-609 -1101 0
-610 -1102 0
-611 -1103 0
-612 -1104 0
-609 -1237 0
-610 -1238 0
-611 -1239 0
-612 -1240 0
-609 -1369 0
-610 -1370 0
-611 -1371 0
-612 -1372 0
-609 -1453 0
-610 -1454 0
-611 -1455 0
-612 -1456 0
-613 -741 0
-614 -742 0
-615 -743 0
-616 -744 0
-613 -1121 0
-614 -1122 0
-615 -1123 0
-616 -1124 0
-613 -1225 0
-614 -1226 0
-615 -1227 0
-616 -1228 0
-613 -1365 0
-614 -1366 0
-615 -1367 0
-616 -1368 0
-617 -629 0
-618 -630 0
-619 -631 0
-620 -632 0
-617 -757 0
-618 -758 0
-619 -759 0
-620 -760 0
-617 -873 0
-618 -874 0
-619 -875 0
-620 -876 0
-617 -1105 0
-618 -1106 0
-619 -1107 0
-620 -1108 0
-617 -1241 0
-618 -1242 0
-619 -1243 0
-620 -1244 0
-617 -1321 0
-618 -1322 0
-619 -1323 0
-620 -1324 0
-617 -1329 0
-618 -1330 0
-619 -1331 0
-620 -1332 0
-617 -1437 0
-618 -1438 0
-619 -1439 0
-620 -1440 0
-617 -1453 0
-618 -1454 0
-619 -1455 0
-620 -1456 0
-617 -1457 0
-618 -1458 0
-619 -1459 0
-620 -1460 0
-617 -1493 0
-618 -1494 0
-619 -1495 0
-620 -1496 0
-621 -633 0
-622 -634 0
-623 -635 0
-624 -636 0
-621 -877 0
-622 -878 0
-623 -879 0
-624 -880 0
-621 -889 0
-622 -890 0
-623 -891 0
-624 -892 0
-621 -1109 0
-622 -1110 0
-623 -1111 0
-624 -1112 0
-621 -1125 0
-622 -1126 0
-623 -1127 0
-624 -1128 0
-621 -1229 0
-622 -1230 0
-623 -1231 0
-624 -1232 0
-621 -1245 0
-622 -1246 0
-623 -1247 0
-624 -1248 0
-621 -1417 0
-622 -1418 0
-623 -1419 0
-624 -1420 0
-621 -1457 0
-622 -1458 0
-623 -1459 0
-624 -1460 0
-625 -637 0
-626 -638 0
-627 -639 0
-628 -640 0
-625 -745 0
-626 -746 0
-627 -747 0
-628 -748 0
-625 -893 0
-626 -894 0
-627 -895 0
-628 -896 0
-625 -1017 0
-626 -1018 0
-627 -1019 0
-628 -1020 0
-625 -1129 0
-626 -1130 0
-627 -1131 0
-628 -1132 0
-625 -1233 0
-626 -1234 0
-627 -1235 0
-628 -1236 0
-625 -1249 0
-626 -1250 0
-627 -1251 0
-628 -1252 0
-625 -1325 0
-626 -1326 0
-627 -1327 0
-628 -1328 0
-625 -1333 0
-626 -1334 0
-627 -1335 0
-628 -1336 0
-625 -1369 0
-626 -1370 0
-627 -1371 0
-628 -1372 0
-625 -1421 0
-626 -1422 0
-627 -1423 0
-628 -1424 0
-625 -1497 0
-626 -1498 0
-627 -1499 0
-628 -1500 0
-629 -649 0
-630 -650 0
-631 -651 0
-632 -652 0
-629 -765 0
-630 -766 0
-631 -767 0
-632 -768 0
-629 -881 0
-630 -882 0
-631 -883 0
-632 -884 0
-629 -1021 0
-630 -1022 0
-631 -1023 0
-632 -1024 0
-629 -1117 0
-630 -1118 0
-631 -1119 0
-632 -1120 0
-629 -1237 0
-630 -1238 0
-631 -1239 0
-632 -1240 0
-629 -1253 0
-630 -1254 0
-631 -1255 0
-632 -1256 0
-629 -1329 0
-630 -1330 0
-631 -1331 0
-632 -1332 0
-629 -1337 0
-630 -1338 0
-631 -1339 0
-632 -1340 0
-629 -1373 0
-630 -1374 0
-631 -1375 0
-632 -1376 0
-629 -1417 0
-630 -1418 0
-631 -1419 0
-632 -1420 0
-629 -1501 0
-630 -1502 0
-631 -1503 0
-632 -1504 0
-633 -653 0
-634 -654 0
-635 -655 0
-636 -656 0
-633 -885 0
-634 -886 0
-635 -887 0
-636 -888 0
-633 -897 0
-634 -898 0
-635 -899 0
-636 -900 0
-633 -1121 0
-634 -1122 0
-635 -1123 0
-636 -1124 0
-633 -1137 0
-634 -1138 0
-635 -1139 0
-636 -1140 0
-633 -1241 0
-634 -1242 0
-635 -1243 0
-636 -1244 0
-633 -1257 0
-634 -1258 0
-635 -1259 0
-636 -1260 0
-633 -1421 0
-634 -1422 0
-635 -1423 0
-636 -1424 0
-633 -1461 0
-634 -1462 0
-635 -1463 0
-636 -1464 0
-637 -657 0
-638 -658 0
-639 -659 0
-640 -660 0
-637 -753 0
-638 -754 0
-639 -755 0
-640 -756 0
-637 -901 0
-638 -902 0
-639 -903 0
-640 -904 0
-637 -1141 0
-638 -1142 0
-639 -1143 0
-640 -1144 0
-637 -1245 0
-638 -1246 0
-639 -1247 0
-640 -1248 0
-637 -1333 0
-638 -1334 0
-639 -1335 0
-640 -1336 0
-637 -1341 0
-638 -1342 0
-639 -1343 0
-640 -1344 0
-637 -1441 0
-638 -1442 0
-639 -1443 0
-640 -1444 0
-637 -1461 0
-638 -1462 0
-639 -1463 0
-640 -1464 0
-637 -1505 0
-638 -1506 0
-639 -1507 0
-640 -1508 0
-641 -769 0
-642 -770 0
-643 -771 0
-644 -772 0
-641 -1125 0
-642 -1126 0
-643 -1127 0
-644 -1128 0
-641 -1261 0
-642 -1262 0
-643 -1263 0
-644 -1264 0
-641 -1377 0
-642 -1378 0
-643 -1379 0
-644 -1380 0
-641 -1465 0
-642 -1466 0
-643 -1467 0
-644 -1468 0
-645 -757 0
-646 -758 0
-647 -759 0
-648 -760 0
-645 -1145 0
-646 -1146 0
-647 -1147 0
-648 -1148 0
-645 -1249 0
-646 -1250 0
-647 -1251 0
-648 -1252 0
-645 -1373 0
-646 -1374 0
-647 -1375 0
-648 -1376 0
-649 -661 0
-650 -662 0
-651 -663 0
-652 -664 0
-649 -773 0
-650 -774 0
-651 -775 0
-652 -776 0
-649 -889 0
-650 -890 0
-651 -891 0
-652 -892 0
-649 -1129 0
-650 -1130 0
-651 -1131 0
-652 -1132 0
-649 -1265 0
-650 -1266 0
-651 -1267 0
-652 -1268 0
-649 -1337 0
-650 -1338 0
-651 -1339 0
-652 -1340 0
-649 -1345 0
-650 -1346 0
-651 -1347 0
-652 -1348 0
-649 -1441 0
-650 -1442 0
-651 -1443 0
-652 -1444 0
-649 -1465 0
-650 -1466 0
-651 -1467 0
-652 -1468 0
-649 -1469 0
-650 -1470 0
-651 -1471 0
-652 -1472 0
-649 -1509 0
-650 -1510 0
-651 -1511 0
-652 -1512 0
-653 -665 0
-654 -666 0
-655 -667 0
-656 -668 0
-653 -893 0
-654 -894 0
-655 -895 0
-656 -896 0
-653 -905 0
-654 -906 0
-655 -907 0
-656 -908 0
-653 -1133 0
-654 -1134 0
-655 -1135 0
-656 -1136 0
-653 -1149 0
-654 -1150 0
-655 -1151 0
-656 -1152 0
-653 -1253 0
-654 -1254 0
-655 -1255 0
-656 -1256 0
-653 -1269 0
-654 -1270 0
-655 -1271 0
-656 -1272 0
-653 -1425 0
-654 -1426 0
-655 -1427 0
-656 -1428 0
-653 -1469 0
-654 -1470 0
-655 -1471 0
-656 -1472 0
-657 -669 0
-658 -670 0
-659 -671 0
-660 -672 0
-657 -761 0
-658 -762 0
-659 -763 0
-660 -764 0
-657 -909 0
-658 -910 0
-659 -911 0
-660 -912 0
-657 -1021 0
-658 -1022 0
-659 -1023 0
-660 -1024 0
-657 -1153 0
-658 -1154 0
-659 -1155 0
-660 -1156 0
-657 -1257 0
-658 -1258 0
-659 -1259 0
-660 -1260 0
-657 -1273 0
-658 -1274 0
-659 -1275 0
-660 -1276 0
-657 -1341 0
-658 -1342 0
-659 -1343 0
-660 -1344 0
-657 -1349 0
-658 -1350 0
-659 -1351 0
-660 -1352 0
-657 -1377 0
-658 -1378 0
-659 -1379 0
-660 -1380 0
-657 -1429 0
-658 -1430 0
-659 -1431 0
-660 -1432 0
-657 -1513 0
-658 -1514 0
-659 -1515 0
-660 -1516 0
-661 -681 0
-662 -682 0
-663 -683 0
-664 -684 0
-661 -781 0
-662 -782 0
-663 -783 0
-664 -784 0
-661 -897 0
-662 -898 0
-663 -899 0
-664 -900 0
-661 -1025 0
-662 -1026 0
-663 -1027 0
-664 -1028 0
-661 -1141 0
-662 -1142 0
-663 -1143 0
-664 -1144 0
-661 -1261 0
-662 -1262 0
-663 -1263 0
-664 -1264 0
-661 -1277 0
-662 -1278 0
-663 -1279 0
-664 -1280 0
-661 -1345 0
-662 -1346 0
-663 -1347 0
-664 -1348 0
-661 -1353 0
-662 -1354 0
-663 -1355 0
-664 -1356 0
-661 -1381 0
-662 -1382 0
-663 -1383 0
-664 -1384 0
-661 -1425 0
-662 -1426 0
-663 -1427 0
-664 -1428 0
-661 -1517 0
-662 -1518 0
-663 -1519 0
-664 -1520 0
-665 -685 0
-666 -686 0
-667 -687 0
-668 -688 0
-665 -901 0
-666 -902 0
-667 -903 0
-668 -904 0
-665 -913 0
-666 -914 0
-667 -915 0
-668 -916 0
-665 -1145 0
-666 -1146 0
-667 -1147 0
-668 -1148 0
-665 -1161 0
-666 -1162 0
-667 -1163 0
-668 -1164 0
-665 -1265 0
-666 -1266 0
-667 -1267 0
-668 -1268 0
-665 -1281 0
-666 -1282 0
-667 -1283 0
-668 -1284 0
-665 -1429 0
-666 -1430 0
-667 -1431 0
-668 -1432 0
-665 -1473 0
-666 -1474 0
-667 -1475 0
-668 -1476 0
-669 -689 0
-670 -690 0
-671 -691 0
-672 -692 0
-669 -769 0
-670 -770 0
-671 -771 0
-672 -772 0
-669 -917 0
-670 -918 0
-671 -919 0
-672 -920 0
-669 -1165 0
-670 -1166 0
-671 -1167 0
-672 -1168 0
-669 -1269 0
-670 -1270 0
-671 -1271 0
-672 -1272 0
-669 -1349 0
-670 -1350 0
-671 -1351 0
-672 -1352 0
-669 -1357 0
-670 -1358 0
-671 -1359 0
-672 -1360 0
-669 -1445 0
-670 -1446 0
-671 -1447 0
-672 -1448 0
-669 -1473 0
-670 -1474 0
-671 -1475 0
-672 -1476 0
-669 -1521 0
-670 -1522 0
-671 -1523 0
-672 -1524 0
-673 -785 0
-674 -786 0
-675 -787 0
-676 -788 0
-673 -1149 0
-674 -1150 0
-675 -1151 0
-676 -1152 0
-673 -1285 0
-674 -1286 0
-675 -1287 0
-676 -1288 0
-673 -1385 0
-674 -1386 0
-675 -1387 0
-676 -1388 0
-673 -1477 0
-674 -1478 0
-675 -1479 0
-676 -1480 0
-677 -773 0
-678 -774 0
-679 -775 0
-680 -776 0
-677 -1169 0
-678 -1170 0
-679 -1171 0
-680 -1172 0
-677 -1273 0
-678 -1274 0
-679 -1275 0
-680 -1276 0
-677 -1381 0
-678 -1382 0
-679 -1383 0
-680 -1384 0
-681 -741 0
-682 -742 0
-683 -743 0
-684 -744 0
-681 -905 0
-682 -906 0
-683 -907 0
-684 -908 0
-681 -1153 0
-682 -1154 0
-683 -1155 0
-684 -1156 0
-681 -1289 0
-682 -1290 0
-683 -1291 0
-684 -1292 0
-681 -1353 0
-682 -1354 0
-683 -1355 0
-684 -1356 0
-681 -1361 0
-682 -1362 0
-683 -1363 0
-684 -1364 0
-681 -1445 0
-682 -1446 0
-683 -1447 0
-684 -1448 0
-681 -1477 0
-682 -1478 0
-683 -1479 0
-684 -1480 0
-681 -1481 0
-682 -1482 0
-683 -1483 0
-684 -1484 0
-681 -1525 0
-682 -1526 0
-683 -1527 0
-684 -1528 0
-685 -873 0
-686 -874 0
-687 -875 0
-688 -876 0
-685 -909 0
-686 -910 0
-687 -911 0
-688 -912 0
-685 -1101 0
-686 -1102 0
-687 -1103 0
-688 -1104 0
-685 -1157 0
-686 -1158 0
-687 -1159 0
-688 -1160 0
-685 -1221 0
-686 -1222 0
-687 -1223 0
-688 -1224 0
-685 -1277 0
-686 -1278 0
-687 -1279 0
-688 -1280 0
-685 -1433 0
-686 -1434 0
-687 -1435 0
-688 -1436 0
-685 -1481 0
-686 -1482 0
-687 -1483 0
-688 -1484 0
-689 -777 0
-690 -778 0
-691 -779 0
-692 -780 0
-689 -877 0
-690 -878 0
-691 -879 0
-692 -880 0
-689 -1025 0
-690 -1026 0
-691 -1027 0
-692 -1028 0
-689 -1105 0
-690 -1106 0
-691 -1107 0
-692 -1108 0
-689 -1225 0
-690 -1226 0
-691 -1227 0
-692 -1228 0
-689 -1281 0
-690 -1282 0
-691 -1283 0
-692 -1284 0
-689 -1317 0
-690 -1318 0
-691 -1319 0
-692 -1320 0
-689 -1357 0
-690 -1358 0
-691 -1359 0
-692 -1360 0
-689 -1385 0
-690 -1386 0
-691 -1387 0
-692 -1388 0
-689 -1413 0
-690 -1414 0
-691 -1415 0
-692 -1416 0
-689 -1529 0
-690 -1530 0
-691 -1531 0
-692 -1532 0
-693 -1037 0
-694 -1038 0
-695 -1039 0
-696 -1040 0
-693 -1217 0
-694 -1218 0
-695 -1219 0
-696 -1220 0
-693 -1449 0
-694 -1450 0
-695 -1451 0
-696 -1452 0
-693 -1533 0
-694 -1534 0
-695 -1535 0
-696 -1536 0
-697 -869 0
-698 -870 0
-699 -871 0
-700 -872 0
-697 -1041 0
-698 -1042 0
-699 -1043 0
-700 -1044 0
-697 -1181 0
-698 -1182 0
-699 -1183 0
-700 -1184 0
-697 -1293 0
-698 -1294 0
-699 -1295 0
-700 -1296 0
-701 -1029 0
-702 -1030 0
-703 -1031 0
-704 -1032 0
-701 -1177 0
-702 -1178 0
-703 -1179 0
-704 -1180 0
-701 -1297 0
-702 -1298 0
-703 -1299 0
-704 -1300 0
-701 -1453 0
-702 -1454 0
-703 -1455 0
-704 -1456 0
-705 -1033 0
-706 -1034 0
-707 -1035 0
-708 -1036 0
-705 -1189 0
-706 -1190 0
-707 -1191 0
-708 -1192 0
-705 -1457 0
-706 -1458 0
-707 -1459 0
-708 -1460 0
-705 -1537 0
-706 -1538 0
-707 -1539 0
-708 -1540 0
-709 -1053 0
-710 -1054 0
-711 -1055 0
-712 -1056 0
-709 -1185 0
-710 -1186 0
-711 -1187 0
-712 -1188 0
-709 -1461 0
-710 -1462 0
-711 -1463 0
-712 -1464 0
-709 -1541 0
-710 -1542 0
-711 -1543 0
-712 -1544 0
-713 -861 0
-714 -862 0
-715 -863 0
-716 -864 0
-713 -1057 0
-714 -1058 0
-715 -1059 0
-716 -1060 0
-713 -1197 0
-714 -1198 0
-715 -1199 0
-716 -1200 0
-713 -1301 0
-714 -1302 0
-715 -1303 0
-716 -1304 0
-717 -1045 0
-718 -1046 0
-719 -1047 0
-720 -1048 0
-717 -1193 0
-718 -1194 0
-719 -1195 0
-720 -1196 0
-717 -1305 0
-718 -1306 0
-719 -1307 0
-720 -1308 0
-717 -1465 0
-718 -1466 0
-719 -1467 0
-720 -1468 0
-721 -1049 0
-722 -1050 0
-723 -1051 0
-724 -1052 0
-721 -1205 0
-722 -1206 0
-723 -1207 0
-724 -1208 0
-721 -1469 0
-722 -1470 0
-723 -1471 0
-724 -1472 0
-721 -1545 0
-722 -1546 0
-723 -1547 0
-724 -1548 0
-725 -1069 0
-726 -1070 0
-727 -1071 0
-728 -1072 0
-725 -1201 0
-726 -1202 0
-727 -1203 0
-728 -1204 0
-725 -1473 0
-726 -1474 0
-727 -1475 0
-728 -1476 0
-725 -1549 0
-726 -1550 0
-727 -1551 0
-728 -1552 0
-729 -865 0
-730 -866 0
-731 -867 0
-732 -868 0
-729 -1073 0
-730 -1074 0
-731 -1075 0
-732 -1076 0
-729 -1213 0
-730 -1214 0
-731 -1215 0
-732 -1216 0
-729 -1309 0
-730 -1310 0
-731 -1311 0
-732 -1312 0
-733 -1061 0
-734 -1062 0
-735 -1063 0
-736 -1064 0
-733 -1209 0
-734 -1210 0
-735 -1211 0
-736 -1212 0
-733 -1313 0
-734 -1314 0
-735 -1315 0
-736 -1316 0
-733 -1477 0
-734 -1478 0
-735 -1479 0
-736 -1480 0
-737 -1065 0
-738 -1066 0
-739 -1067 0
-740 -1068 0
-737 -1173 0
-738 -1174 0
-739 -1175 0
-740 -1176 0
-737 -1481 0
-738 -1482 0
-739 -1483 0
-740 -1484 0
-737 -1553 0
-738 -1554 0
-739 -1555 0
-740 -1556 0
-741 -801 0
-742 -802 0
-743 -803 0
-744 -804 0
-741 -853 0
-742 -854 0
-743 -855 0
-744 -856 0
-741 -1033 0
-742 -1034 0
-743 -1035 0
-744 -1036 0
-741 -1073 0
-742 -1074 0
-743 -1075 0
-744 -1076 0
-741 -1365 0
-742 -1366 0
-743 -1367 0
-744 -1368 0
-741 -1553 0
-742 -1554 0
-743 -1555 0
-744 -1556 0
-745 -789 0
-746 -790 0
-747 -791 0
-748 -792 0
-745 -809 0
-746 -810 0
-747 -811 0
-748 -812 0
-745 -1369 0
-746 -1370 0
-747 -1371 0
-748 -1372 0
-749 -793 0
-750 -794 0
-751 -795 0
-752 -796 0
-749 -813 0
-750 -814 0
-751 -815 0
-752 -816 0
-749 -1365 0
-750 -1366 0
-751 -1367 0
-752 -1368 0
-753 -801 0
-754 -802 0
-755 -803 0
-756 -804 0
-753 -821 0
-754 -822 0
-755 -823 0
-756 -824 0
-753 -1037 0
-754 -1038 0
-755 -1039 0
-756 -1040 0
-753 -1045 0
-754 -1046 0
-755 -1047 0
-756 -1048 0
-753 -1369 0
-754 -1370 0
-755 -1371 0
-756 -1372 0
-753 -1541 0
-754 -1542 0
-755 -1543 0
-756 -1544 0
-757 -805 0
-758 -806 0
-759 -807 0
-760 -808 0
-757 -825 0
-758 -826 0
-759 -827 0
-760 -828 0
-757 -1041 0
-758 -1042 0
-759 -1043 0
-760 -1044 0
-757 -1049 0
-758 -1050 0
-759 -1051 0
-760 -1052 0
-757 -1373 0
-758 -1374 0
-759 -1375 0
-760 -1376 0
-757 -1537 0
-758 -1538 0
-759 -1539 0
-760 -1540 0
-761 -813 0
-762 -814 0
-763 -815 0
-764 -816 0
-761 -833 0
-762 -834 0
-763 -835 0
-764 -836 0
-761 -1377 0
-762 -1378 0
-763 -1379 0
-764 -1380 0
-765 -817 0
-766 -818 0
-767 -819 0
-768 -820 0
-765 -837 0
-766 -838 0
-767 -839 0
-768 -840 0
-765 -1373 0
-766 -1374 0
-767 -1375 0
-768 -1376 0
-769 -825 0
-770 -826 0
-771 -827 0
-772 -828 0
-769 -845 0
-770 -846 0
-771 -847 0
-772 -848 0
-769 -1053 0
-770 -1054 0
-771 -1055 0
-772 -1056 0
-769 -1061 0
-770 -1062 0
-771 -1063 0
-772 -1064 0
-769 -1377 0
-770 -1378 0
-771 -1379 0
-772 -1380 0
-769 -1549 0
-770 -1550 0
-771 -1551 0
-772 -1552 0
-773 -829 0
-774 -830 0
-775 -831 0
-776 -832 0
-773 -849 0
-774 -850 0
-775 -851 0
-776 -852 0
-773 -1057 0
-774 -1058 0
-775 -1059 0
-776 -1060 0
-773 -1065 0
-774 -1066 0
-775 -1067 0
-776 -1068 0
-773 -1381 0
-774 -1382 0
-775 -1383 0
-776 -1384 0
-773 -1545 0
-774 -1546 0
-775 -1547 0
-776 -1548 0
-777 -837 0
-778 -838 0
-779 -839 0
-780 -840 0
-777 -857 0
-778 -858 0
-779 -859 0
-780 -860 0
-777 -1385 0
-778 -1386 0
-779 -1387 0
-780 -1388 0
-781 -789 0
-782 -790 0
-783 -791 0
-784 -792 0
-781 -841 0
-782 -842 0
-783 -843 0
-784 -844 0
-781 -1381 0
-782 -1382 0
-783 -1383 0
-784 -1384 0
-785 -797 0
-786 -798 0
-787 -799 0
-788 -800 0
-785 -849 0
-786 -850 0
-787 -851 0
-788 -852 0
-785 -1029 0
-786 -1030 0
-787 -1031 0
-788 -1032 0
-785 -1069 0
-786 -1070 0
-787 -1071 0
-788 -1072 0
-785 -1385 0
-786 -1386 0
-787 -1387 0
-788 -1388 0
-785 -1533 0
-786 -1534 0
-787 -1535 0
-788 -1536 0
-789 -929 0
-790 -930 0
-791 -931 0
-792 -932 0
-789 -1005 0
-790 -1006 0
-791 -1007 0
-792 -1008 0
-789 -1177 0
-790 -1178 0
-791 -1179 0
-792 -1180 0
-789 -1213 0
-790 -1214 0
-791 -1215 0
-792 -1216 0
-793 -937 0
-794 -938 0
-795 -939 0
-796 -940 0
-793 -1361 0
-794 -1362 0
-795 -1363 0
-796 -1364 0
-793 -1449 0
-794 -1450 0
-795 -1451 0
-796 -1452 0
-797 -945 0
-798 -946 0
-799 -947 0
-800 -948 0
-797 -1325 0
-798 -1326 0
-799 -1327 0
-800 -1328 0
-797 -1453 0
-798 -1454 0
-799 -1455 0
-800 -1456 0
-801 -921 0
-802 -922 0
-803 -923 0
-804 -924 0
-801 -949 0
-802 -950 0
-803 -951 0
-804 -952 0
-801 -1173 0
-802 -1174 0
-803 -1175 0
-804 -1176 0
-801 -1185 0
-802 -1186 0
-803 -1187 0
-804 -1188 0
-801 -1449 0
-802 -1450 0
-803 -1451 0
-804 -1452 0
-801 -1457 0
-802 -1458 0
-803 -1459 0
-804 -1460 0
-805 -925 0
-806 -926 0
-807 -927 0
-808 -928 0
-805 -1321 0
-806 -1322 0
-807 -1323 0
-808 -1324 0
-809 -933 0
-810 -934 0
-811 -935 0
-812 -936 0
-809 -1333 0
-810 -1334 0
-811 -1335 0
-812 -1336 0
-809 -1457 0
-810 -1458 0
-811 -1459 0
-812 -1460 0
-813 -941 0
-814 -942 0
-815 -943 0
-816 -944 0
-813 -961 0
-814 -962 0
-815 -963 0
-816 -964 0
-813 -1181 0
-814 -1182 0
-815 -1183 0
-816 -1184 0
-813 -1193 0
-814 -1194 0
-815 -1195 0
-816 -1196 0
-817 -969 0
-818 -970 0
-819 -971 0
-820 -972 0
-817 -1329 0
-818 -1330 0
-819 -1331 0
-820 -1332 0
-817 -1461 0
-818 -1462 0
-819 -1463 0
-820 -1464 0
-821 -977 0
-822 -978 0
-823 -979 0
-824 -980 0
-821 -1341 0
-822 -1342 0
-823 -1343 0
-824 -1344 0
-821 -1465 0
-822 -1466 0
-823 -1467 0
-824 -1468 0
-825 -953 0
-826 -954 0
-827 -955 0
-828 -956 0
-825 -981 0
-826 -982 0
-827 -983 0
-828 -984 0
-825 -1189 0
-826 -1190 0
-827 -1191 0
-828 -1192 0
-825 -1201 0
-826 -1202 0
-827 -1203 0
-828 -1204 0
-825 -1461 0
-826 -1462 0
-827 -1463 0
-828 -1464 0
-825 -1469 0
-826 -1470 0
-827 -1471 0
-828 -1472 0
-829 -957 0
-830 -958 0
-831 -959 0
-832 -960 0
-829 -1337 0
-830 -1338 0
-831 -1339 0
-832 -1340 0
-833 -965 0
-834 -966 0
-835 -967 0
-836 -968 0
-833 -1349 0
-834 -1350 0
-835 -1351 0
-836 -1352 0
-833 -1469 0
-834 -1470 0
-835 -1471 0
-836 -1472 0
-837 -973 0
-838 -974 0
-839 -975 0
-840 -976 0
-837 -993 0
-838 -994 0
-839 -995 0
-840 -996 0
-837 -1197 0
-838 -1198 0
-839 -1199 0
-840 -1200 0
-837 -1209 0
-838 -1210 0
-839 -1211 0
-840 -1212 0
-841 -1001 0
-842 -1002 0
-843 -1003 0
-844 -1004 0
-841 -1345 0
-842 -1346 0
-843 -1347 0
-844 -1348 0
-841 -1473 0
-842 -1474 0
-843 -1475 0
-844 -1476 0
-845 -1009 0
-846 -1010 0
-847 -1011 0
-848 -1012 0
-845 -1357 0
-846 -1358 0
-847 -1359 0
-848 -1360 0
-845 -1477 0
-846 -1478 0
-847 -1479 0
-848 -1480 0
-849 -985 0
-850 -986 0
-851 -987 0
-852 -988 0
-849 -1013 0
-850 -1014 0
-851 -1015 0
-852 -1016 0
-849 -1205 0
-850 -1206 0
-851 -1207 0
-852 -1208 0
-849 -1217 0
-850 -1218 0
-851 -1219 0
-852 -1220 0
-849 -1473 0
-850 -1474 0
-851 -1475 0
-852 -1476 0
-849 -1481 0
-850 -1482 0
-851 -1483 0
-852 -1484 0
-853 -989 0
-854 -990 0
-855 -991 0
-856 -992 0
-853 -1353 0
-854 -1354 0
-855 -1355 0
-856 -1356 0
-857 -997 0
-858 -998 0
-859 -999 0
-860 -1000 0
-857 -1317 0
-858 -1318 0
-859 -1319 0
-860 -1320 0
-857 -1481 0
-858 -1482 0
-859 -1483 0
-860 -1484 0
-861 -1017 0
-862 -1018 0
-863 -1019 0
-864 -1020 0
-861 -1249 0
-862 -1250 0
-863 -1251 0
-864 -1252 0
-865 -1021 0
-866 -1022 0
-867 -1023 0
-868 -1024 0
-865 -1273 0
-866 -1274 0
-867 -1275 0
-868 -1276 0
-869 -1025 0
-870 -1026 0
-871 -1027 0
-872 -1028 0
-869 -1225 0
-870 -1226 0
-871 -1227 0
-872 -1228 0
-873 -1217 0
-874 -1218 0
-875 -1219 0
-876 -1220 0
-873 -1433 0
-874 -1434 0
-875 -1435 0
-876 -1436 0
-877 -1097 0
-878 -1098 0
-879 -1099 0
-880 -1100 0
-877 -1181 0
-878 -1182 0
-879 -1183 0
-880 -1184 0
-877 -1413 0
-878 -1414 0
-879 -1415 0
-880 -1416 0
-881 -1085 0
-882 -1086 0
-883 -1087 0
-884 -1088 0
-881 -1177 0
-882 -1178 0
-883 -1179 0
-884 -1180 0
-881 -1417 0
-882 -1418 0
-883 -1419 0
-884 -1420 0
-885 -1189 0
-886 -1190 0
-887 -1191 0
-888 -1192 0
-885 -1421 0
-886 -1422 0
-887 -1423 0
-888 -1424 0
-889 -1185 0
-890 -1186 0
-891 -1187 0
-892 -1188 0
-889 -1417 0
-890 -1418 0
-891 -1419 0
-892 -1420 0
-893 -1081 0
-894 -1082 0
-895 -1083 0
-896 -1084 0
-893 -1197 0
-894 -1198 0
-895 -1199 0
-896 -1200 0
-893 -1421 0
-894 -1422 0
-895 -1423 0
-896 -1424 0
-897 -1093 0
-898 -1094 0
-899 -1095 0
-900 -1096 0
-897 -1193 0
-898 -1194 0
-899 -1195 0
-900 -1196 0
-897 -1425 0
-898 -1426 0
-899 -1427 0
-900 -1428 0
-901 -1205 0
-902 -1206 0
-903 -1207 0
-904 -1208 0
-901 -1429 0
-902 -1430 0
-903 -1431 0
-904 -1432 0
-905 -1201 0
-906 -1202 0
-907 -1203 0
-908 -1204 0
-905 -1425 0
-906 -1426 0
-907 -1427 0
-908 -1428 0
-909 -1089 0
-910 -1090 0
-911 -1091 0
-912 -1092 0
-909 -1213 0
-910 -1214 0
-911 -1215 0
-912 -1216 0
-909 -1429 0
-910 -1430 0
-911 -1431 0
-912 -1432 0
-913 -1077 0
-914 -1078 0
-915 -1079 0
-916 -1080 0
-913 -1209 0
-914 -1210 0
-915 -1211 0
-916 -1212 0
-913 -1433 0
-914 -1434 0
-915 -1435 0
-916 -1436 0
-917 -1173 0
-918 -1174 0
-919 -1175 0
-920 -1176 0
-917 -1413 0
-918 -1414 0
-919 -1415 0
-920 -1416 0
-921 -1165 0
-922 -1166 0
-923 -1167 0
-924 -1168 0
-921 -1229 0
-922 -1230 0
-923 -1231 0
-924 -1232 0
-921 -1409 0
-922 -1410 0
-923 -1411 0
-924 -1412 0
-921 -1449 0
-922 -1450 0
-923 -1451 0
-924 -1452 0
-921 -1529 0
-922 -1530 0
-923 -1531 0
-924 -1532 0
-925 -1169 0
-926 -1170 0
-927 -1171 0
-928 -1172 0
-925 -1233 0
-926 -1234 0
-927 -1235 0
-928 -1236 0
-929 -1077 0
-930 -1078 0
-931 -1079 0
-932 -1080 0
-929 -1117 0
-930 -1118 0
-931 -1119 0
-932 -1120 0
-929 -1221 0
-930 -1222 0
-931 -1223 0
-932 -1224 0
-929 -1493 0
-930 -1494 0
-931 -1495 0
-932 -1496 0
-933 -1101 0
-934 -1102 0
-935 -1103 0
-936 -1104 0
-933 -1237 0
-934 -1238 0
-935 -1239 0
-936 -1240 0
-933 -1457 0
-934 -1458 0
-935 -1459 0
-936 -1460 0
-937 -1121 0
-938 -1122 0
-939 -1123 0
-940 -1124 0
-937 -1225 0
-938 -1226 0
-939 -1227 0
-940 -1228 0
-937 -1449 0
-938 -1450 0
-939 -1451 0
-940 -1452 0
-941 -1081 0
-942 -1082 0
-943 -1083 0
-944 -1084 0
-941 -1105 0
-942 -1106 0
-943 -1107 0
-944 -1108 0
-941 -1241 0
-942 -1242 0
-943 -1243 0
-944 -1244 0
-941 -1489 0
-942 -1490 0
-943 -1491 0
-944 -1492 0
-945 -1125 0
-946 -1126 0
-947 -1127 0
-948 -1128 0
-945 -1229 0
-946 -1230 0
-947 -1231 0
-948 -1232 0
-945 -1453 0
-946 -1454 0
-947 -1455 0
-948 -1456 0
-949 -1129 0
-950 -1130 0
-951 -1131 0
-952 -1132 0
-949 -1233 0
-950 -1234 0
-951 -1235 0
-952 -1236 0
-949 -1397 0
-950 -1398 0
-951 -1399 0
-952 -1400 0
-949 -1457 0
-950 -1458 0
-951 -1459 0
-952 -1460 0
-949 -1501 0
-950 -1502 0
-951 -1503 0
-952 -1504 0
-953 -1117 0
-954 -1118 0
-955 -1119 0
-956 -1120 0
-953 -1253 0
-954 -1254 0
-955 -1255 0
-956 -1256 0
-953 -1393 0
-954 -1394 0
-955 -1395 0
-956 -1396 0
-953 -1461 0
-954 -1462 0
-955 -1463 0
-956 -1464 0
-953 -1497 0
-954 -1498 0
-955 -1499 0
-956 -1500 0
-957 -1121 0
-958 -1122 0
-959 -1123 0
-960 -1124 0
-957 -1257 0
-958 -1258 0
-959 -1259 0
-960 -1260 0
-961 -1085 0
-962 -1086 0
-963 -1087 0
-964 -1088 0
-961 -1141 0
-962 -1142 0
-963 -1143 0
-964 -1144 0
-961 -1245 0
-962 -1246 0
-963 -1247 0
-964 -1248 0
-961 -1509 0
-962 -1510 0
-963 -1511 0
-964 -1512 0
-965 -1125 0
-966 -1126 0
-967 -1127 0
-968 -1128 0
-965 -1261 0
-966 -1262 0
-967 -1263 0
-968 -1264 0
-965 -1469 0
-966 -1470 0
-967 -1471 0
-968 -1472 0
-969 -1145 0
-970 -1146 0
-971 -1147 0
-972 -1148 0
-969 -1249 0
-970 -1250 0
-971 -1251 0
-972 -1252 0
-969 -1461 0
-970 -1462 0
-971 -1463 0
-972 -1464 0
-973 -1089 0
-974 -1090 0
-975 -1091 0
-976 -1092 0
-973 -1129 0
-974 -1130 0
-975 -1131 0
-976 -1132 0
-973 -1265 0
-974 -1266 0
-975 -1267 0
-976 -1268 0
-973 -1505 0
-974 -1506 0
-975 -1507 0
-976 -1508 0
-977 -1149 0
-978 -1150 0
-979 -1151 0
-980 -1152 0
-977 -1253 0
-978 -1254 0
-979 -1255 0
-980 -1256 0
-977 -1465 0
-978 -1466 0
-979 -1467 0
-980 -1468 0
-981 -1153 0
-982 -1154 0
-983 -1155 0
-984 -1156 0
-981 -1257 0
-982 -1258 0
-983 -1259 0
-984 -1260 0
-981 -1405 0
-982 -1406 0
-983 -1407 0
-984 -1408 0
-981 -1469 0
-982 -1470 0
-983 -1471 0
-984 -1472 0
-981 -1517 0
-982 -1518 0
-983 -1519 0
-984 -1520 0
-985 -1141 0
-986 -1142 0
-987 -1143 0
-988 -1144 0
-985 -1277 0
-986 -1278 0
-987 -1279 0
-988 -1280 0
-985 -1401 0
-986 -1402 0
-987 -1403 0
-988 -1404 0
-985 -1473 0
-986 -1474 0
-987 -1475 0
-988 -1476 0
-985 -1513 0
-986 -1514 0
-987 -1515 0
-988 -1516 0
-989 -1145 0
-990 -1146 0
-991 -1147 0
-992 -1148 0
-989 -1281 0
-990 -1282 0
-991 -1283 0
-992 -1284 0
-993 -1093 0
-994 -1094 0
-995 -1095 0
-996 -1096 0
-993 -1165 0
-994 -1166 0
-995 -1167 0
-996 -1168 0
-993 -1269 0
-994 -1270 0
-995 -1271 0
-996 -1272 0
-993 -1525 0
-994 -1526 0
-995 -1527 0
-996 -1528 0
-997 -1149 0
-998 -1150 0
-999 -1151 0
-1000 -1152 0
-997 -1285 0
-998 -1286 0
-999 -1287 0
-1000 -1288 0
-997 -1481 0
-998 -1482 0
-999 -1483 0
-1000 -1484 0
-1001 -1169 0
-1002 -1170 0
-1003 -1171 0
-1004 -1172 0
-1001 -1273 0
-1002 -1274 0
-1003 -1275 0
-1004 -1276 0
-1001 -1473 0
-1002 -1474 0
-1003 -1475 0
-1004 -1476 0
-1005 -1097 0
-1006 -1098 0
-1007 -1099 0
-1008 -1100 0
-1005 -1153 0
-1006 -1154 0
-1007 -1155 0
-1008 -1156 0
-1005 -1289 0
-1006 -1290 0
-1007 -1291 0
-1008 -1292 0
-1005 -1521 0
-1006 -1522 0
-1007 -1523 0
-1008 -1524 0
-1009 -1101 0
-1010 -1102 0
-1011 -1103 0
-1012 -1104 0
-1009 -1277 0
-1010 -1278 0
-1011 -1279 0
-1012 -1280 0
-1009 -1477 0
-1010 -1478 0
-1011 -1479 0
-1012 -1480 0
-1013 -1105 0
-1014 -1106 0
-1015 -1107 0
-1016 -1108 0
-1013 -1281 0
-1014 -1282 0
-1015 -1283 0
-1016 -1284 0
-1013 -1389 0
-1014 -1390 0
-1015 -1391 0
-1016 -1392 0
-1013 -1481 0
-1014 -1482 0
-1015 -1483 0
-1016 -1484 0
-1013 -1485 0
-1014 -1486 0
-1015 -1487 0
-1016 -1488 0
-1017 -1961 0
-1018 -1962 0
-1019 -1963 0
-1020 -1964 0
-1021 -1969 0
-1022 -1970 0
-1023 -1971 0
-1024 -1972 0
-1025 -1953 0
-1026 -1954 0
-1027 -1955 0
-1028 -1956 0
-1029 -1097 0
-1030 -1098 0
-1031 -1099 0
-1032 -1100 0
-1029 -1453 0
-1030 -1454 0
-1031 -1455 0
-1032 -1456 0
-1029 -1533 0
-1030 -1534 0
-1031 -1535 0
-1032 -1536 0
-1033 -1389 0
-1034 -1390 0
-1035 -1391 0
-1036 -1392 0
-1033 -1457 0
-1034 -1458 0
-1035 -1459 0
-1036 -1460 0
-1037 -1393 0
-1038 -1394 0
-1039 -1395 0
-1040 -1396 0
-1037 -1449 0
-1038 -1450 0
-1039 -1451 0
-1040 -1452 0
-1041 -1085 0
-1042 -1086 0
-1043 -1087 0
-1044 -1088 0
-1041 -1537 0
-1042 -1538 0
-1043 -1539 0
-1044 -1540 0
-1045 -1081 0
-1046 -1082 0
-1047 -1083 0
-1048 -1084 0
-1045 -1465 0
-1046 -1466 0
-1047 -1467 0
-1048 -1468 0
-1045 -1541 0
-1046 -1542 0
-1047 -1543 0
-1048 -1544 0
-1049 -1397 0
-1050 -1398 0
-1051 -1399 0
-1052 -1400 0
-1049 -1469 0
-1050 -1470 0
-1051 -1471 0
-1052 -1472 0
-1053 -1401 0
-1054 -1402 0
-1055 -1403 0
-1056 -1404 0
-1053 -1461 0
-1054 -1462 0
-1055 -1463 0
-1056 -1464 0
-1057 -1093 0
-1058 -1094 0
-1059 -1095 0
-1060 -1096 0
-1057 -1545 0
-1058 -1546 0
-1059 -1547 0
-1060 -1548 0
-1061 -1089 0
-1062 -1090 0
-1063 -1091 0
-1064 -1092 0
-1061 -1477 0
-1062 -1478 0
-1063 -1479 0
-1064 -1480 0
-1061 -1549 0
-1062 -1550 0
-1063 -1551 0
-1064 -1552 0
-1065 -1405 0
-1066 -1406 0
-1067 -1407 0
-1068 -1408 0
-1065 -1481 0
-1066 -1482 0
-1067 -1483 0
-1068 -1484 0
-1069 -1409 0
-1070 -1410 0
-1071 -1411 0
-1072 -1412 0
-1069 -1473 0
-1070 -1474 0
-1071 -1475 0
-1072 -1476 0
-1073 -1077 0
-1074 -1078 0
-1075 -1079 0
-1076 -1080 0
-1073 -1553 0
-1074 -1554 0
-1075 -1555 0
-1076 -1556 0
-1077 -1365 0
-1078 -1366 0
-1079 -1367 0
-1080 -1368 0
-1081 -1369 0
-1082 -1370 0
-1083 -1371 0
-1084 -1372 0
-1085 -1373 0
-1086 -1374 0
-1087 -1375 0
-1088 -1376 0
-1089 -1377 0
-1090 -1378 0
-1091 -1379 0
-1092 -1380 0
-1093 -1381 0
-1094 -1382 0
-1095 -1383 0
-1096 -1384 0
-1097 -1385 0
-1098 -1386 0
-1099 -1387 0
-1100 -1388 0
-1101 -1229 0
-1102 -1230 0
-1103 -1231 0
-1104 -1232 0
-1101 -1285 0
-1102 -1286 0
-1103 -1287 0
-1104 -1288 0
-1101 -1409 0
-1102 -1410 0
-1103 -1411 0
-1104 -1412 0
-1105 -1233 0
-1106 -1234 0
-1107 -1235 0
-1108 -1236 0
-1105 -1289 0
-1106 -1290 0
-1107 -1291 0
-1108 -1292 0
-1105 -1313 0
-1106 -1314 0
-1107 -1315 0
-1108 -1316 0
-1105 -1437 0
-1106 -1438 0
-1107 -1439 0
-1108 -1440 0
-1109 -1221 0
-1110 -1222 0
-1111 -1223 0
-1112 -1224 0
-1113 -1241 0
-1114 -1242 0
-1115 -1243 0
-1116 -1244 0
-1117 -1229 0
-1118 -1230 0
-1119 -1231 0
-1120 -1232 0
-1117 -1245 0
-1118 -1246 0
-1119 -1247 0
-1120 -1248 0
-1117 -1301 0
-1118 -1302 0
-1119 -1303 0
-1120 -1304 0
-1117 -1437 0
-1118 -1438 0
-1119 -1439 0
-1120 -1440 0
-1121 -1233 0
-1122 -1234 0
-1123 -1235 0
-1124 -1236 0
-1121 -1249 0
-1122 -1250 0
-1123 -1251 0
-1124 -1252 0
-1121 -1397 0
-1122 -1398 0
-1123 -1399 0
-1124 -1400 0
-1125 -1237 0
-1126 -1238 0
-1127 -1239 0
-1128 -1240 0
-1125 -1253 0
-1126 -1254 0
-1127 -1255 0
-1128 -1256 0
-1125 -1393 0
-1126 -1394 0
-1127 -1395 0
-1128 -1396 0
-1129 -1241 0
-1130 -1242 0
-1131 -1243 0
-1132 -1244 0
-1129 -1257 0
-1130 -1258 0
-1131 -1259 0
-1132 -1260 0
-1129 -1297 0
-1130 -1298 0
-1131 -1299 0
-1132 -1300 0
-1129 -1441 0
-1130 -1442 0
-1131 -1443 0
-1132 -1444 0
-1133 -1245 0
-1134 -1246 0
-1135 -1247 0
-1136 -1248 0
-1137 -1265 0
-1138 -1266 0
-1139 -1267 0
-1140 -1268 0
-1141 -1253 0
-1142 -1254 0
-1143 -1255 0
-1144 -1256 0
-1141 -1269 0
-1142 -1270 0
-1143 -1271 0
-1144 -1272 0
-1141 -1309 0
-1142 -1310 0
-1143 -1311 0
-1144 -1312 0
-1141 -1441 0
-1142 -1442 0
-1143 -1443 0
-1144 -1444 0
-1145 -1257 0
-1146 -1258 0
-1147 -1259 0
-1148 -1260 0
-1145 -1273 0
-1146 -1274 0
-1147 -1275 0
-1148 -1276 0
-1145 -1405 0
-1146 -1406 0
-1147 -1407 0
-1148 -1408 0
-1149 -1261 0
-1150 -1262 0
-1151 -1263 0
-1152 -1264 0
-1149 -1277 0
-1150 -1278 0
-1151 -1279 0
-1152 -1280 0
-1149 -1401 0
-1150 -1402 0
-1151 -1403 0
-1152 -1404 0
-1153 -1265 0
-1154 -1266 0
-1155 -1267 0
-1156 -1268 0
-1153 -1281 0
-1154 -1282 0
-1155 -1283 0
-1156 -1284 0
-1153 -1305 0
-1154 -1306 0
-1155 -1307 0
-1156 -1308 0
-1153 -1445 0
-1154 -1446 0
-1155 -1447 0
-1156 -1448 0
-1157 -1269 0
-1158 -1270 0
-1159 -1271 0
-1160 -1272 0
-1161 -1289 0
-1162 -1290 0
-1163 -1291 0
-1164 -1292 0
-1165 -1221 0
-1166 -1222 0
-1167 -1223 0
-1168 -1224 0
-1165 -1277 0
-1166 -1278 0
-1167 -1279 0
-1168 -1280 0
-1165 -1293 0
-1166 -1294 0
-1167 -1295 0
-1168 -1296 0
-1165 -1445 0
-1166 -1446 0
-1167 -1447 0
-1168 -1448 0
-1169 -1225 0
-1170 -1226 0
-1171 -1227 0
-1172 -1228 0
-1169 -1281 0
-1170 -1282 0
-1171 -1283 0
-1172 -1284 0
-1169 -1389 0
-1170 -1390 0
-1171 -1391 0
-1172 -1392 0
-1173 -1217 0
-1174 -1218 0
-1175 -1219 0
-1176 -1220 0
-1173 -1553 0
-1174 -1554 0
-1175 -1555 0
-1176 -1556 0
-1177 -1181 0
-1178 -1182 0
-1179 -1183 0
-1180 -1184 0
-1177 -1293 0
-1178 -1294 0
-1179 -1295 0
-1180 -1296 0
-1177 -1413 0
-1178 -1414 0
-1179 -1415 0
-1180 -1416 0
-1181 -1297 0
-1182 -1298 0
-1183 -1299 0
-1184 -1300 0
-1181 -1417 0
-1182 -1418 0
-1183 -1419 0
-1184 -1420 0
-1185 -1189 0
-1186 -1190 0
-1187 -1191 0
-1188 -1192 0
-1185 -1541 0
-1186 -1542 0
-1187 -1543 0
-1188 -1544 0
-1189 -1537 0
-1190 -1538 0
-1191 -1539 0
-1192 -1540 0
-1193 -1197 0
-1194 -1198 0
-1195 -1199 0
-1196 -1200 0
-1193 -1301 0
-1194 -1302 0
-1195 -1303 0
-1196 -1304 0
-1193 -1421 0
-1194 -1422 0
-1195 -1423 0
-1196 -1424 0
-1197 -1305 0
-1198 -1306 0
-1199 -1307 0
-1200 -1308 0
-1197 -1425 0
-1198 -1426 0
-1199 -1427 0
-1200 -1428 0
-1201 -1205 0
-1202 -1206 0
-1203 -1207 0
-1204 -1208 0
-1201 -1549 0
-1202 -1550 0
-1203 -1551 0
-1204 -1552 0
-1205 -1545 0
-1206 -1546 0
-1207 -1547 0
-1208 -1548 0
-1209 -1213 0
-1210 -1214 0
-1211 -1215 0
-1212 -1216 0
-1209 -1309 0
-1210 -1310 0
-1211 -1311 0
-1212 -1312 0
-1209 -1429 0
-1210 -1430 0
-1211 -1431 0
-1212 -1432 0
-1213 -1313 0
-1214 -1314 0
-1215 -1315 0
-1216 -1316 0
-1213 -1433 0
-1214 -1434 0
-1215 -1435 0
-1216 -1436 0
-1217 -1533 0
-1218 -1534 0
-1219 -1535 0
-1220 -1536 0
-1221 -1321 0
-1222 -1322 0
-1223 -1323 0
-1224 -1324 0
-1221 -1449 0
-1222 -1450 0
-1223 -1451 0
-1224 -1452 0
-1229 -1317 0
-1230 -1318 0
-1231 -1319 0
-1232 -1320 0
-1229 -1457 0
-1230 -1458 0
-1231 -1459 0
-1232 -1460 0
-1233 -1329 0
-1234 -1330 0
-1235 -1331 0
-1236 -1332 0
-1233 -1449 0
-1234 -1450 0
-1235 -1451 0
-1236 -1452 0
-1237 -1453 0
-1238 -1454 0
-1239 -1455 0
-1240 -1456 0
-1241 -1325 0
-1242 -1326 0
-1243 -1327 0
-1244 -1328 0
-1241 -1457 0
-1242 -1458 0
-1243 -1459 0
-1244 -1460 0
-1245 -1337 0
-1246 -1338 0
-1247 -1339 0
-1248 -1340 0
-1245 -1461 0
-1246 -1462 0
-1247 -1463 0
-1248 -1464 0
-1253 -1333 0
-1254 -1334 0
-1255 -1335 0
-1256 -1336 0
-1253 -1469 0
-1254 -1470 0
-1255 -1471 0
-1256 -1472 0
-1257 -1345 0
-1258 -1346 0
-1259 -1347 0
-1260 -1348 0
-1257 -1461 0
-1258 -1462 0
-1259 -1463 0
-1260 -1464 0
-1261 -1465 0
-1262 -1466 0
-1263 -1467 0
-1264 -1468 0
-1265 -1341 0
-1266 -1342 0
-1267 -1343 0
-1268 -1344 0
-1265 -1469 0
-1266 -1470 0
-1267 -1471 0
-1268 -1472 0
-1269 -1353 0
-1270 -1354 0
-1271 -1355 0
-1272 -1356 0
-1269 -1473 0
-1270 -1474 0
-1271 -1475 0
-1272 -1476 0
-1277 -1349 0
-1278 -1350 0
-1279 -1351 0
-1280 -1352 0
-1277 -1481 0
-1278 -1482 0
-1279 -1483 0
-1280 -1484 0
-1281 -1361 0
-1282 -1362 0
-1283 -1363 0
-1284 -1364 0
-1281 -1473 0
-1282 -1474 0
-1283 -1475 0
-1284 -1476 0
-1285 -1477 0
-1286 -1478 0
-1287 -1479 0
-1288 -1480 0
-1289 -1357 0
-1290 -1358 0
-1291 -1359 0
-1292 -1360 0
-1289 -1481 0
-1290 -1482 0
-1291 -1483 0
-1292 -1484 0
-1293 -1365 0
-1294 -1366 0
-1295 -1367 0
-1296 -1368 0
-1297 -1369 0
-1298 -1370 0
-1299 -1371 0
-1300 -1372 0
-1301 -1373 0
-1302 -1374 0
-1303 -1375 0
-1304 -1376 0
-1305 -1377 0
-1306 -1378 0
-1307 -1379 0
-1308 -1380 0
-1309 -1381 0
-1310 -1382 0
-1311 -1383 0
-1312 -1384 0
-1313 -1385 0
-1314 -1386 0
-1315 -1387 0
-1316 -1388 0
-1317 -1361 0
-1318 -1362 0
-1319 -1363 0
-1320 -1364 0
-1317 -1489 0
-1318 -1490 0
-1319 -1491 0
-1320 -1492 0
-1317 -1529 0
-1318 -1530 0
-1319 -1531 0
-1320 -1532 0
-1321 -1325 0
-1322 -1326 0
-1323 -1327 0
-1324 -1328 0
-1321 -1485 0
-1322 -1486 0
-1323 -1487 0
-1324 -1488 0
-1321 -1493 0
-1322 -1494 0
-1323 -1495 0
-1324 -1496 0
-1325 -1489 0
-1326 -1490 0
-1327 -1491 0
-1328 -1492 0
-1325 -1497 0
-1326 -1498 0
-1327 -1499 0
-1328 -1500 0
-1329 -1333 0
-1330 -1334 0
-1331 -1335 0
-1332 -1336 0
-1329 -1493 0
-1330 -1494 0
-1331 -1495 0
-1332 -1496 0
-1329 -1501 0
-1330 -1502 0
-1331 -1503 0
-1332 -1504 0
-1333 -1497 0
-1334 -1498 0
-1335 -1499 0
-1336 -1500 0
-1333 -1505 0
-1334 -1506 0
-1335 -1507 0
-1336 -1508 0
-1337 -1341 0
-1338 -1342 0
-1339 -1343 0
-1340 -1344 0
-1337 -1501 0
-1338 -1502 0
-1339 -1503 0
-1340 -1504 0
-1337 -1509 0
-1338 -1510 0
-1339 -1511 0
-1340 -1512 0
-1341 -1505 0
-1342 -1506 0
-1343 -1507 0
-1344 -1508 0
-1341 -1513 0
-1342 -1514 0
-1343 -1515 0
-1344 -1516 0
-1345 -1349 0
-1346 -1350 0
-1347 -1351 0
-1348 -1352 0
-1345 -1509 0
-1346 -1510 0
-1347 -1511 0
-1348 -1512 0
-1345 -1517 0
-1346 -1518 0
-1347 -1519 0
-1348 -1520 0
-1349 -1513 0
-1350 -1514 0
-1351 -1515 0
-1352 -1516 0
-1349 -1521 0
-1350 -1522 0
-1351 -1523 0
-1352 -1524 0
-1353 -1357 0
-1354 -1358 0
-1355 -1359 0
-1356 -1360 0
-1353 -1517 0
-1354 -1518 0
-1355 -1519 0
-1356 -1520 0
-1353 -1525 0
-1354 -1526 0
-1355 -1527 0
-1356 -1528 0
-1357 -1521 0
-1358 -1522 0
-1359 -1523 0
-1360 -1524 0
-1357 -1529 0
-1358 -1530 0
-1359 -1531 0
-1360 -1532 0
-1361 -1485 0
-1362 -1486 0
-1363 -1487 0
-1364 -1488 0
-1361 -1525 0
-1362 -1526 0
-1363 -1527 0
-1364 -1528 0
-1389 -1553 0
-1390 -1554 0
-1391 -1555 0
-1392 -1556 0
-1393 -1541 0
-1394 -1542 0
-1395 -1543 0
-1396 -1544 0
-1397 -1537 0
-1398 -1538 0
-1399 -1539 0
-1400 -1540 0
-1401 -1549 0
-1402 -1550 0
-1403 -1551 0
-1404 -1552 0
-1405 -1545 0
-1406 -1546 0
-1407 -1547 0
-1408 -1548 0
-1409 -1533 0
-1410 -1534 0
-1411 -1535 0
-1412 -1536 0
-1413 -1449 0
-1414 -1450 0
-1415 -1451 0
-1416 -1452 0
-1417 -1457 0
-1418 -1458 0
-1419 -1459 0
-1420 -1460 0
-1421 -1461 0
-1422 -1462 0
-1423 -1463 0
-1424 -1464 0
-1425 -1469 0
-1426 -1470 0
-1427 -1471 0
-1428 -1472 0
-1429 -1473 0
-1430 -1474 0
-1431 -1475 0
-1432 -1476 0
-1433 -1481 0
-1434 -1482 0
-1435 -1483 0
-1436 -1484 0
-1437 -1773 0
-1438 -1774 0
-1439 -1775 0
-1440 -1776 0
-1441 -1777 0
-1442 -1778 0
-1443 -1779 0
-1444 -1780 0
-1445 -1765 0
-1446 -1766 0
-1447 -1767 0
-1448 -1768 0
-1449 -1533 0
-1450 -1534 0
-1451 -1535 0
-1452 -1536 0
-1457 -1537 0
-1458 -1538 0
-1459 -1539 0
-1460 -1540 0
-1461 -1541 0
-1462 -1542 0
-1463 -1543 0
-1464 -1544 0
-1469 -1545 0
-1470 -1546 0
-1471 -1547 0
-1472 -1548 0
-1473 -1549 0
-1474 -1550 0
-1475 -1551 0
-1476 -1552 0
-1481 -1553 0
-1482 -1554 0
-1483 -1555 0
-1484 -1556 0
-1485 -2001 0
-1486 -2002 0
-1487 -2003 0
-1488 -2004 0
-1489 -2005 0
-1490 -2006 0
-1491 -2007 0
-1492 -2008 0
-1493 -2009 0
-1494 -2010 0
-1495 -2011 0
-1496 -2012 0
-1497 -2013 0
-1498 -2014 0
-1499 -2015 0
-1500 -2016 0
-1501 -2017 0
-1502 -2018 0
-1503 -2019 0
-1504 -2020 0
-1505 -2021 0
-1506 -2022 0
-1507 -2023 0
-1508 -2024 0
-1509 -2025 0
-1510 -2026 0
-1511 -2027 0
-1512 -2028 0
-1513 -2029 0
-1514 -2030 0
-1515 -2031 0
-1516 -2032 0
-1517 -1985 0
-1518 -1986 0
-1519 -1987 0
-1520 -1988 0
-1521 -1989 0
-1522 -1990 0
-1523 -1991 0
-1524 -1992 0
-1525 -1993 0
-1526 -1994 0
-1527 -1995 0
-1528 -1996 0
-1529 -1997 0
-1530 -1998 0
-1531 -1999 0
-1532 -2000 0
-1557 -1593 0
-1558 -1594 0
-1559 -1595 0
-1560 -1596 0
-1557 -1597 0
-1558 -1598 0
-1559 -1599 0
-1560 -1600 0
-1557 -1617 0
-1558 -1618 0
-1559 -1619 0
-1560 -1620 0
-1557 -1633 0
-1558 -1634 0
-1559 -1635 0
-1560 -1636 0
-1557 -1653 0
-1558 -1654 0
-1559 -1655 0
-1560 -1656 0
-1557 -1681 0
-1558 -1682 0
-1559 -1683 0
-1560 -1684 0
-1557 -1713 0
-1558 -1714 0
-1559 -1715 0
-1560 -1716 0
-1557 -1725 0
-1558 -1726 0
-1559 -1727 0
-1560 -1728 0
-1557 -1761 0
-1558 -1762 0
-1559 -1763 0
-1560 -1764 0
-1557 -1765 0
-1558 -1766 0
-1559 -1767 0
-1560 -1768 0
-1557 -1781 0
-1558 -1782 0
-1559 -1783 0
-1560 -1784 0
-1557 -1785 0
-1558 -1786 0
-1559 -1787 0
-1560 -1788 0
-1557 -1829 0
-1558 -1830 0
-1559 -1831 0
-1560 -1832 0
-1561 -1597 0
-1562 -1598 0
-1563 -1599 0
-1564 -1600 0
-1561 -1601 0
-1562 -1602 0
-1563 -1603 0
-1564 -1604 0
-1561 -1625 0
-1562 -1626 0
-1563 -1627 0
-1564 -1628 0
-1561 -1641 0
-1562 -1642 0
-1563 -1643 0
-1564 -1644 0
-1561 -1661 0
-1562 -1662 0
-1563 -1663 0
-1564 -1664 0
-1561 -1705 0
-1562 -1706 0
-1563 -1707 0
-1564 -1708 0
-1561 -1721 0
-1562 -1722 0
-1563 -1723 0
-1564 -1724 0
-1561 -1733 0
-1562 -1734 0
-1563 -1735 0
-1564 -1736 0
-1561 -1765 0
-1562 -1766 0
-1563 -1767 0
-1564 -1768 0
-1561 -1769 0
-1562 -1770 0
-1563 -1771 0
-1564 -1772 0
-1561 -1789 0
-1562 -1790 0
-1563 -1791 0
-1564 -1792 0
-1561 -1793 0
-1562 -1794 0
-1563 -1795 0
-1564 -1796 0
-1561 -1833 0
-1562 -1834 0
-1563 -1835 0
-1564 -1836 0
-1565 -1581 0
-1566 -1582 0
-1567 -1583 0
-1568 -1584 0
-1565 -1601 0
-1566 -1602 0
-1567 -1603 0
-1568 -1604 0
-1565 -1609 0
-1566 -1610 0
-1567 -1611 0
-1568 -1612 0
-1565 -1629 0
-1566 -1630 0
-1567 -1631 0
-1568 -1632 0
-1565 -1649 0
-1566 -1650 0
-1567 -1651 0
-1568 -1652 0
-1565 -1669 0
-1566 -1670 0
-1567 -1671 0
-1568 -1672 0
-1565 -1729 0
-1566 -1730 0
-1567 -1731 0
-1568 -1732 0
-1565 -1741 0
-1566 -1742 0
-1567 -1743 0
-1568 -1744 0
-1565 -1769 0
-1566 -1770 0
-1567 -1771 0
-1568 -1772 0
-1565 -1773 0
-1566 -1774 0
-1567 -1775 0
-1568 -1776 0
-1565 -1797 0
-1566 -1798 0
-1567 -1799 0
-1568 -1800 0
-1565 -1801 0
-1566 -1802 0
-1567 -1803 0
-1568 -1804 0
-1565 -1837 0
-1566 -1838 0
-1567 -1839 0
-1568 -1840 0
-1569 -1581 0
-1570 -1582 0
-1571 -1583 0
-1572 -1584 0
-1569 -1585 0
-1570 -1586 0
-1571 -1587 0
-1572 -1588 0
-1569 -1637 0
-1570 -1638 0
-1571 -1639 0
-1572 -1640 0
-1569 -1657 0
-1570 -1658 0
-1571 -1659 0
-1572 -1660 0
-1569 -1677 0
-1570 -1678 0
-1571 -1679 0
-1572 -1680 0
-1569 -1737 0
-1570 -1738 0
-1571 -1739 0
-1572 -1740 0
-1569 -1749 0
-1570 -1750 0
-1571 -1751 0
-1572 -1752 0
-1569 -1773 0
-1570 -1774 0
-1571 -1775 0
-1572 -1776 0
-1569 -1805 0
-1570 -1806 0
-1571 -1807 0
-1572 -1808 0
-1569 -1809 0
-1570 -1810 0
-1571 -1811 0
-1572 -1812 0
-1569 -1841 0
-1570 -1842 0
-1571 -1843 0
-1572 -1844 0
-1573 -1585 0
-1574 -1586 0
-1575 -1587 0
-1576 -1588 0
-1573 -1589 0
-1574 -1590 0
-1575 -1591 0
-1576 -1592 0
-1573 -1605 0
-1574 -1606 0
-1575 -1607 0
-1576 -1608 0
-1573 -1621 0
-1574 -1622 0
-1575 -1623 0
-1576 -1624 0
-1573 -1665 0
-1574 -1666 0
-1575 -1667 0
-1576 -1668 0
-1573 -1685 0
-1574 -1686 0
-1575 -1687 0
-1576 -1688 0
-1573 -1709 0
-1574 -1710 0
-1575 -1711 0
-1576 -1712 0
-1573 -1745 0
-1574 -1746 0
-1575 -1747 0
-1576 -1748 0
-1573 -1757 0
-1574 -1758 0
-1575 -1759 0
-1576 -1760 0
-1573 -1777 0
-1574 -1778 0
-1575 -1779 0
-1576 -1780 0
-1573 -1813 0
-1574 -1814 0
-1575 -1815 0
-1576 -1816 0
-1573 -1817 0
-1574 -1818 0
-1575 -1819 0
-1576 -1820 0
-1573 -1845 0
-1574 -1846 0
-1575 -1847 0
-1576 -1848 0
-1577 -1589 0
-1578 -1590 0
-1579 -1591 0
-1580 -1592 0
-1577 -1593 0
-1578 -1594 0
-1579 -1595 0
-1580 -1596 0
-1577 -1613 0
-1578 -1614 0
-1579 -1615 0
-1580 -1616 0
-1577 -1645 0
-1578 -1646 0
-1579 -1647 0
-1580 -1648 0
-1577 -1673 0
-1578 -1674 0
-1579 -1675 0
-1580 -1676 0
-1577 -1701 0
-1578 -1702 0
-1579 -1703 0
-1580 -1704 0
-1577 -1717 0
-1578 -1718 0
-1579 -1719 0
-1580 -1720 0
-1577 -1753 0
-1578 -1754 0
-1579 -1755 0
-1580 -1756 0
-1577 -1777 0
-1578 -1778 0
-1579 -1779 0
-1580 -1780 0
-1577 -1821 0
-1578 -1822 0
-1579 -1823 0
-1580 -1824 0
-1577 -1825 0
-1578 -1826 0
-1579 -1827 0
-1580 -1828 0
-1577 -1849 0
-1578 -1850 0
-1579 -1851 0
-1580 -1852 0
-1581 -1589 0
-1582 -1590 0
-1583 -1591 0
-1584 -1592 0
-1581 -1597 0
-1582 -1598 0
-1583 -1599 0
-1584 -1600 0
-1581 -1629 0
-1582 -1630 0
-1583 -1631 0
-1584 -1632 0
-1581 -1649 0
-1582 -1650 0
-1583 -1651 0
-1584 -1652 0
-1581 -1677 0
-1582 -1678 0
-1583 -1679 0
-1584 -1680 0
-1581 -1689 0
-1582 -1690 0
-1583 -1691 0
-1584 -1692 0
-1581 -1697 0
-1582 -1698 0
-1583 -1699 0
-1584 -1700 0
-1581 -1721 0
-1582 -1722 0
-1583 -1723 0
-1584 -1724 0
-1581 -1757 0
-1582 -1758 0
-1583 -1759 0
-1584 -1760 0
-1581 -1829 0
-1582 -1830 0
-1583 -1831 0
-1584 -1832 0
-1581 -1849 0
-1582 -1850 0
-1583 -1851 0
-1584 -1852 0
-1581 -1853 0
-1582 -1854 0
-1583 -1855 0
-1584 -1856 0
-1581 -1889 0
-1582 -1890 0
-1583 -1891 0
-1584 -1892 0
-1585 -1593 0
-1586 -1594 0
-1587 -1595 0
-1588 -1596 0
-1585 -1601 0
-1586 -1602 0
-1587 -1603 0
-1588 -1604 0
-1585 -1621 0
-1586 -1622 0
-1587 -1623 0
-1588 -1624 0
-1585 -1637 0
-1586 -1638 0
-1587 -1639 0
-1588 -1640 0
-1585 -1657 0
-1586 -1658 0
-1587 -1659 0
-1588 -1660 0
-1585 -1685 0
-1586 -1686 0
-1587 -1687 0
-1588 -1688 0
-1585 -1717 0
-1586 -1718 0
-1587 -1719 0
-1588 -1720 0
-1585 -1729 0
-1586 -1730 0
-1587 -1731 0
-1588 -1732 0
-1585 -1829 0
-1586 -1830 0
-1587 -1831 0
-1588 -1832 0
-1585 -1833 0
-1586 -1834 0
-1587 -1835 0
-1588 -1836 0
-1585 -1857 0
-1586 -1858 0
-1587 -1859 0
-1588 -1860 0
-1589 -1597 0
-1590 -1598 0
-1591 -1599 0
-1592 -1600 0
-1589 -1605 0
-1590 -1606 0
-1591 -1607 0
-1592 -1608 0
-1589 -1645 0
-1590 -1646 0
-1591 -1647 0
-1592 -1648 0
-1589 -1665 0
-1590 -1666 0
-1591 -1667 0
-1592 -1668 0
-1589 -1689 0
-1590 -1690 0
-1591 -1691 0
-1592 -1692 0
-1589 -1693 0
-1590 -1694 0
-1591 -1695 0
-1592 -1696 0
-1589 -1725 0
-1590 -1726 0
-1591 -1727 0
-1592 -1728 0
-1589 -1737 0
-1590 -1738 0
-1591 -1739 0
-1592 -1740 0
-1589 -1833 0
-1590 -1834 0
-1591 -1835 0
-1592 -1836 0
-1589 -1837 0
-1590 -1838 0
-1591 -1839 0
-1592 -1840 0
-1589 -1861 0
-1590 -1862 0
-1591 -1863 0
-1592 -1864 0
-1589 -1865 0
-1590 -1866 0
-1591 -1867 0
-1592 -1868 0
-1593 -1601 0
-1594 -1602 0
-1595 -1603 0
-1596 -1604 0
-1593 -1613 0
-1594 -1614 0
-1595 -1615 0
-1596 -1616 0
-1593 -1633 0
-1594 -1634 0
-1595 -1635 0
-1596 -1636 0
-1593 -1653 0
-1594 -1654 0
-1595 -1655 0
-1596 -1656 0
-1593 -1673 0
-1594 -1674 0
-1595 -1675 0
-1596 -1676 0
-1593 -1733 0
-1594 -1734 0
-1595 -1735 0
-1596 -1736 0
-1593 -1745 0
-1594 -1746 0
-1595 -1747 0
-1596 -1748 0
-1593 -1837 0
-1594 -1838 0
-1595 -1839 0
-1596 -1840 0
-1593 -1841 0
-1594 -1842 0
-1595 -1843 0
-1596 -1844 0
-1593 -1869 0
-1594 -1870 0
-1595 -1871 0
-1596 -1872 0
-1597 -1617 0
-1598 -1618 0
-1599 -1619 0
-1600 -1620 0
-1597 -1661 0
-1598 -1662 0
-1599 -1663 0
-1600 -1664 0
-1597 -1681 0
-1598 -1682 0
-1599 -1683 0
-1600 -1684 0
-1597 -1693 0
-1598 -1694 0
-1599 -1695 0
-1600 -1696 0
-1597 -1697 0
-1598 -1698 0
-1599 -1699 0
-1600 -1700 0
-1597 -1741 0
-1598 -1742 0
-1599 -1743 0
-1600 -1744 0
-1597 -1753 0
-1598 -1754 0
-1599 -1755 0
-1600 -1756 0
-1597 -1841 0
-1598 -1842 0
-1599 -1843 0
-1600 -1844 0
-1597 -1845 0
-1598 -1846 0
-1599 -1847 0
-1600 -1848 0
-1597 -1873 0
-1598 -1874 0
-1599 -1875 0
-1600 -1876 0
-1597 -1877 0
-1598 -1878 0
-1599 -1879 0
-1600 -1880 0
-1601 -1609 0
-1602 -1610 0
-1603 -1611 0
-1604 -1612 0
-1601 -1625 0
-1602 -1626 0
-1603 -1627 0
-1604 -1628 0
-1601 -1641 0
-1602 -1642 0
-1603 -1643 0
-1604 -1644 0
-1601 -1669 0
-1602 -1670 0
-1603 -1671 0
-1604 -1672 0
-1601 -1749 0
-1602 -1750 0
-1603 -1751 0
-1604 -1752 0
-1601 -1761 0
-1602 -1762 0
-1603 -1763 0
-1604 -1764 0
-1601 -1845 0
-1602 -1846 0
-1603 -1847 0
-1604 -1848 0
-1601 -1849 0
-1602 -1850 0
-1603 -1851 0
-1604 -1852 0
-1601 -1881 0
-1602 -1882 0
-1603 -1883 0
-1604 -1884 0
-1601 -1885 0
-1602 -1886 0
-1603 -1887 0
-1604 -1888 0
-1605 -1681 0
-1606 -1682 0
-1607 -1683 0
-1608 -1684 0
-1605 -1725 0
-1606 -1726 0
-1607 -1727 0
-1608 -1728 0
-1605 -1825 0
-1606 -1826 0
-1607 -1827 0
-1608 -1828 0
-1605 -1857 0
-1606 -1858 0
-1607 -1859 0
-1608 -1860 0
-1605 -1889 0
-1606 -1890 0
-1607 -1891 0
-1608 -1892 0
-1605 -1893 0
-1606 -1894 0
-1607 -1895 0
-1608 -1896 0
-1609 -1653 0
-1610 -1654 0
-1611 -1655 0
-1612 -1656 0
-1609 -1761 0
-1610 -1762 0
-1611 -1763 0
-1612 -1764 0
-1609 -1789 0
-1610 -1790 0
-1611 -1791 0
-1612 -1792 0
-1609 -1853 0
-1610 -1854 0
-1611 -1855 0
-1612 -1856 0
-1609 -1897 0
-1610 -1898 0
-1611 -1899 0
-1612 -1900 0
-1613 -1641 0
-1614 -1642 0
-1615 -1643 0
-1616 -1644 0
-1613 -1701 0
-1614 -1702 0
-1615 -1703 0
-1616 -1704 0
-1613 -1733 0
-1614 -1734 0
-1615 -1735 0
-1616 -1736 0
-1613 -1785 0
-1614 -1786 0
-1615 -1787 0
-1616 -1788 0
-1613 -1857 0
-1614 -1858 0
-1615 -1859 0
-1616 -1860 0
-1613 -1861 0
-1614 -1862 0
-1615 -1863 0
-1616 -1864 0
-1613 -1901 0
-1614 -1902 0
-1615 -1903 0
-1616 -1904 0
-1617 -1649 0
-1618 -1650 0
-1619 -1651 0
-1620 -1652 0
-1617 -1741 0
-1618 -1742 0
-1619 -1743 0
-1620 -1744 0
-1617 -1793 0
-1618 -1794 0
-1619 -1795 0
-1620 -1796 0
-1617 -1861 0
-1618 -1862 0
-1619 -1863 0
-1620 -1864 0
-1617 -1869 0
-1618 -1870 0
-1619 -1871 0
-1620 -1872 0
-1617 -1909 0
-1618 -1910 0
-1619 -1911 0
-1620 -1912 0
-1621 -1669 0
-1622 -1670 0
-1623 -1671 0
-1624 -1672 0
-1621 -1709 0
-1622 -1710 0
-1623 -1711 0
-1624 -1712 0
-1621 -1729 0
-1622 -1730 0
-1623 -1731 0
-1624 -1732 0
-1621 -1805 0
-1622 -1806 0
-1623 -1807 0
-1624 -1808 0
-1621 -1865 0
-1622 -1866 0
-1623 -1867 0
-1624 -1868 0
-1621 -1913 0
-1622 -1914 0
-1623 -1915 0
-1624 -1916 0
-1625 -1657 0
-1626 -1658 0
-1627 -1659 0
-1628 -1660 0
-1625 -1705 0
-1626 -1706 0
-1627 -1707 0
-1628 -1708 0
-1625 -1749 0
-1626 -1750 0
-1627 -1751 0
-1628 -1752 0
-1625 -1801 0
-1626 -1802 0
-1627 -1803 0
-1628 -1804 0
-1625 -1869 0
-1626 -1870 0
-1627 -1871 0
-1628 -1872 0
-1625 -1873 0
-1626 -1874 0
-1627 -1875 0
-1628 -1876 0
-1625 -1917 0
-1626 -1918 0
-1627 -1919 0
-1628 -1920 0
-1629 -1665 0
-1630 -1666 0
-1631 -1667 0
-1632 -1668 0
-1629 -1757 0
-1630 -1758 0
-1631 -1759 0
-1632 -1760 0
-1629 -1809 0
-1630 -1810 0
-1631 -1811 0
-1632 -1812 0
-1629 -1873 0
-1630 -1874 0
-1631 -1875 0
-1632 -1876 0
-1629 -1881 0
-1630 -1882 0
-1631 -1883 0
-1632 -1884 0
-1629 -1925 0
-1630 -1926 0
-1631 -1927 0
-1632 -1928 0
-1633 -1685 0
-1634 -1686 0
-1635 -1687 0
-1636 -1688 0
-1633 -1713 0
-1634 -1714 0
-1635 -1715 0
-1636 -1716 0
-1633 -1745 0
-1634 -1746 0
-1635 -1747 0
-1636 -1748 0
-1633 -1821 0
-1634 -1822 0
-1635 -1823 0
-1636 -1824 0
-1633 -1877 0
-1634 -1878 0
-1635 -1879 0
-1636 -1880 0
-1633 -1885 0
-1634 -1886 0
-1635 -1887 0
-1636 -1888 0
-1633 -1929 0
-1634 -1930 0
-1635 -1931 0
-1636 -1932 0
-1637 -1673 0
-1638 -1674 0
-1639 -1675 0
-1640 -1676 0
-1637 -1717 0
-1638 -1718 0
-1639 -1719 0
-1640 -1720 0
-1637 -1817 0
-1638 -1818 0
-1639 -1819 0
-1640 -1820 0
-1637 -1881 0
-1638 -1882 0
-1639 -1883 0
-1640 -1884 0
-1637 -1889 0
-1638 -1890 0
-1639 -1891 0
-1640 -1892 0
-1637 -1933 0
-1638 -1934 0
-1639 -1935 0
-1640 -1936 0
-1641 -1649 0
-1642 -1650 0
-1643 -1651 0
-1644 -1652 0
-1641 -1681 0
-1642 -1682 0
-1643 -1683 0
-1644 -1684 0
-1641 -1765 0
-1642 -1766 0
-1643 -1767 0
-1644 -1768 0
-1641 -1849 0
-1642 -1850 0
-1643 -1851 0
-1644 -1852 0
-1641 -1857 0
-1642 -1858 0
-1643 -1859 0
-1644 -1860 0
-1641 -1897 0
-1642 -1898 0
-1643 -1899 0
-1644 -1900 0
-1641 -1937 0
-1642 -1938 0
-1643 -1939 0
-1644 -1940 0
-1641 -1985 0
-1642 -1986 0
-1643 -1987 0
-1644 -1988 0
-1645 -1653 0
-1646 -1654 0
-1647 -1655 0
-1648 -1656 0
-1645 -1685 0
-1646 -1686 0
-1647 -1687 0
-1648 -1688 0
-1645 -1833 0
-1646 -1834 0
-1647 -1835 0
-1648 -1836 0
-1645 -1853 0
-1646 -1854 0
-1647 -1855 0
-1648 -1856 0
-1645 -1893 0
-1646 -1894 0
-1647 -1895 0
-1648 -1896 0
-1645 -1901 0
-1646 -1902 0
-1647 -1903 0
-1648 -1904 0
-1645 -1953 0
-1646 -1954 0
-1647 -1955 0
-1648 -1956 0
-1645 -1989 0
-1646 -1990 0
-1647 -1991 0
-1648 -1992 0
-1649 -1657 0
-1650 -1658 0
-1651 -1659 0
-1652 -1660 0
-1649 -1769 0
-1650 -1770 0
-1651 -1771 0
-1652 -1772 0
-1649 -1829 0
-1650 -1830 0
-1651 -1831 0
-1652 -1832 0
-1649 -1861 0
-1650 -1862 0
-1651 -1863 0
-1652 -1864 0
-1649 -1897 0
-1650 -1898 0
-1651 -1899 0
-1652 -1900 0
-1649 -1905 0
-1650 -1906 0
-1651 -1907 0
-1652 -1908 0
-1649 -1941 0
-1650 -1942 0
-1651 -1943 0
-1652 -1944 0
-1649 -1953 0
-1650 -1954 0
-1651 -1955 0
-1652 -1956 0
-1649 -1973 0
-1650 -1974 0
-1651 -1975 0
-1652 -1976 0
-1649 -1993 0
-1650 -1994 0
-1651 -1995 0
-1652 -1996 0
-1653 -1661 0
-1654 -1662 0
-1655 -1663 0
-1656 -1664 0
-1653 -1765 0
-1654 -1766 0
-1655 -1767 0
-1656 -1768 0
-1653 -1837 0
-1654 -1838 0
-1655 -1839 0
-1656 -1840 0
-1653 -1901 0
-1654 -1902 0
-1655 -1903 0
-1656 -1904 0
-1653 -1909 0
-1654 -1910 0
-1655 -1911 0
-1656 -1912 0
-1653 -1941 0
-1654 -1942 0
-1655 -1943 0
-1656 -1944 0
-1653 -1957 0
-1654 -1958 0
-1655 -1959 0
-1656 -1960 0
-1653 -1997 0
-1654 -1998 0
-1655 -1999 0
-1656 -2000 0
-1657 -1665 0
-1658 -1666 0
-1659 -1667 0
-1660 -1668 0
-1657 -1773 0
-1658 -1774 0
-1659 -1775 0
-1660 -1776 0
-1657 -1833 0
-1658 -1834 0
-1659 -1835 0
-1660 -1836 0
-1657 -1869 0
-1658 -1870 0
-1659 -1871 0
-1660 -1872 0
-1657 -1905 0
-1658 -1906 0
-1659 -1907 0
-1660 -1908 0
-1657 -1913 0
-1658 -1914 0
-1659 -1915 0
-1660 -1916 0
-1657 -1945 0
-1658 -1946 0
-1659 -1947 0
-1660 -1948 0
-1657 -1957 0
-1658 -1958 0
-1659 -1959 0
-1660 -1960 0
-1657 -2001 0
-1658 -2002 0
-1659 -2003 0
-1660 -2004 0
-1661 -1669 0
-1662 -1670 0
-1663 -1671 0
-1664 -1672 0
-1661 -1769 0
-1662 -1770 0
-1663 -1771 0
-1664 -1772 0
-1661 -1841 0
-1662 -1842 0
-1663 -1843 0
-1664 -1844 0
-1661 -1865 0
-1662 -1866 0
-1663 -1867 0
-1664 -1868 0
-1661 -1909 0
-1662 -1910 0
-1663 -1911 0
-1664 -1912 0
-1661 -1917 0
-1662 -1918 0
-1663 -1919 0
-1664 -1920 0
-1661 -1945 0
-1662 -1946 0
-1663 -1947 0
-1664 -1948 0
-1661 -1961 0
-1662 -1962 0
-1663 -1963 0
-1664 -1964 0
-1661 -1977 0
-1662 -1978 0
-1663 -1979 0
-1664 -1980 0
-1661 -2005 0
-1662 -2006 0
-1663 -2007 0
-1664 -2008 0
-1665 -1673 0
-1666 -1674 0
-1667 -1675 0
-1668 -1676 0
-1665 -1837 0
-1666 -1838 0
-1667 -1839 0
-1668 -1840 0
-1665 -1873 0
-1666 -1874 0
-1667 -1875 0
-1668 -1876 0
-1665 -1913 0
-1666 -1914 0
-1667 -1915 0
-1668 -1916 0
-1665 -1921 0
-1666 -1922 0
-1667 -1923 0
-1668 -1924 0
-1665 -1961 0
-1666 -1962 0
-1667 -1963 0
-1668 -1964 0
-1665 -2009 0
-1666 -2010 0
-1667 -2011 0
-1668 -2012 0
-1669 -1677 0
-1670 -1678 0
-1671 -1679 0
-1672 -1680 0
-1669 -1773 0
-1670 -1774 0
-1671 -1775 0
-1672 -1776 0
-1669 -1845 0
-1670 -1846 0
-1671 -1847 0
-1672 -1848 0
-1669 -1917 0
-1670 -1918 0
-1671 -1919 0
-1672 -1920 0
-1669 -1925 0
-1670 -1926 0
-1671 -1927 0
-1672 -1928 0
-1669 -1965 0
-1670 -1966 0
-1671 -1967 0
-1672 -1968 0
-1669 -2013 0
-1670 -2014 0
-1671 -2015 0
-1672 -2016 0
-1673 -1681 0
-1674 -1682 0
-1675 -1683 0
-1676 -1684 0
-1673 -1777 0
-1674 -1778 0
-1675 -1779 0
-1676 -1780 0
-1673 -1841 0
-1674 -1842 0
-1675 -1843 0
-1676 -1844 0
-1673 -1881 0
-1674 -1882 0
-1675 -1883 0
-1676 -1884 0
-1673 -1921 0
-1674 -1922 0
-1675 -1923 0
-1676 -1924 0
-1673 -1929 0
-1674 -1930 0
-1675 -1931 0
-1676 -1932 0
-1673 -1949 0
-1674 -1950 0
-1675 -1951 0
-1676 -1952 0
-1673 -1965 0
-1674 -1966 0
-1675 -1967 0
-1676 -1968 0
-1673 -2017 0
-1674 -2018 0
-1675 -2019 0
-1676 -2020 0
-1677 -1685 0
-1678 -1686 0
-1679 -1687 0
-1680 -1688 0
-1677 -1849 0
-1678 -1850 0
-1679 -1851 0
-1680 -1852 0
-1677 -1877 0
-1678 -1878 0
-1679 -1879 0
-1680 -1880 0
-1677 -1925 0
-1678 -1926 0
-1679 -1927 0
-1680 -1928 0
-1677 -1933 0
-1678 -1934 0
-1679 -1935 0
-1680 -1936 0
-1677 -1949 0
-1678 -1950 0
-1679 -1951 0
-1680 -1952 0
-1677 -1969 0
-1678 -1970 0
-1679 -1971 0
-1680 -1972 0
-1677 -1981 0
-1678 -1982 0
-1679 -1983 0
-1680 -1984 0
-1677 -2021 0
-1678 -2022 0
-1679 -2023 0
-1680 -2024 0
-1681 -1845 0
-1682 -1846 0
-1683 -1847 0
-1684 -1848 0
-1681 -1889 0
-1682 -1890 0
-1683 -1891 0
-1684 -1892 0
-1681 -1929 0
-1682 -1930 0
-1683 -1931 0
-1684 -1932 0
-1681 -1937 0
-1682 -1938 0
-1683 -1939 0
-1684 -1940 0
-1681 -1969 0
-1682 -1970 0
-1683 -1971 0
-1684 -1972 0
-1681 -2025 0
-1682 -2026 0
-1683 -2027 0
-1684 -2028 0
-1685 -1777 0
-1686 -1778 0
-1687 -1779 0
-1688 -1780 0
-1685 -1829 0
-1686 -1830 0
-1687 -1831 0
-1688 -1832 0
-1685 -1885 0
-1686 -1886 0
-1687 -1887 0
-1688 -1888 0
-1685 -1893 0
-1686 -1894 0
-1687 -1895 0
-1688 -1896 0
-1685 -1933 0
-1686 -1934 0
-1687 -1935 0
-1688 -1936 0
-1685 -2029 0
-1686 -2030 0
-1687 -2031 0
-1688 -2032 0
-1689 -1717 0
-1690 -1718 0
-1691 -1719 0
-1692 -1720 0
-1689 -1729 0
-1690 -1730 0
-1691 -1731 0
-1692 -1732 0
-1689 -1973 0
-1690 -1974 0
-1691 -1975 0
-1692 -1976 0
-1693 -1733 0
-1694 -1734 0
-1695 -1735 0
-1696 -1736 0
-1693 -1745 0
-1694 -1746 0
-1695 -1747 0
-1696 -1748 0
-1693 -1977 0
-1694 -1978 0
-1695 -1979 0
-1696 -1980 0
-1697 -1749 0
-1698 -1750 0
-1699 -1751 0
-1700 -1752 0
-1697 -1761 0
-1698 -1762 0
-1699 -1763 0
-1700 -1764 0
-1697 -1981 0
-1698 -1982 0
-1699 -1983 0
-1700 -1984 0
-1701 -1713 0
-1702 -1714 0
-1703 -1715 0
-1704 -1716 0
-1701 -1725 0
-1702 -1726 0
-1703 -1727 0
-1704 -1728 0
-1701 -1825 0
-1702 -1826 0
-1703 -1827 0
-1704 -1828 0
-1701 -1989 0
-1702 -1990 0
-1703 -1991 0
-1704 -1992 0
-1705 -1741 0
-1706 -1742 0
-1707 -1743 0
-1708 -1744 0
-1705 -1793 0
-1706 -1794 0
-1707 -1795 0
-1708 -1796 0
-1705 -1957 0
-1706 -1958 0
-1707 -1959 0
-1708 -1960 0
-1705 -2005 0
-1706 -2006 0
-1707 -2007 0
-1708 -2008 0
-1709 -1737 0
-1710 -1738 0
-1711 -1739 0
-1712 -1740 0
-1709 -1813 0
-1710 -1814 0
-1711 -1815 0
-1712 -1816 0
-1709 -1965 0
-1710 -1966 0
-1711 -1967 0
-1712 -1968 0
-1709 -2009 0
-1710 -2010 0
-1711 -2011 0
-1712 -2012 0
-1713 -1753 0
-1714 -1754 0
-1715 -1755 0
-1716 -1756 0
-1713 -1781 0
-1714 -1782 0
-1715 -1783 0
-1716 -1784 0
-1713 -2025 0
-1714 -2026 0
-1715 -2027 0
-1716 -2028 0
-1717 -1849 0
-1718 -1850 0
-1719 -1851 0
-1720 -1852 0
-1717 -1857 0
-1718 -1858 0
-1719 -1859 0
-1720 -1860 0
-1717 -2029 0
-1718 -2030 0
-1719 -2031 0
-1720 -2032 0
-1717 -2033 0
-1718 -2034 0
-1719 -2035 0
-1720 -2036 0
-1721 -1833 0
-1722 -1834 0
-1723 -1835 0
-1724 -1836 0
-1721 -1853 0
-1722 -1854 0
-1723 -1855 0
-1724 -1856 0
-1721 -1993 0
-1722 -1994 0
-1723 -1995 0
-1724 -1996 0
-1725 -1829 0
-1726 -1830 0
-1727 -1831 0
-1728 -1832 0
-1725 -1861 0
-1726 -1862 0
-1727 -1863 0
-1728 -1864 0
-1725 -1989 0
-1726 -1990 0
-1727 -1991 0
-1728 -1992 0
-1729 -1837 0
-1730 -1838 0
-1731 -1839 0
-1732 -1840 0
-1729 -1973 0
-1730 -1974 0
-1731 -1975 0
-1732 -1976 0
-1729 -2001 0
-1730 -2002 0
-1731 -2003 0
-1732 -2004 0
-1733 -1833 0
-1734 -1834 0
-1735 -1835 0
-1736 -1836 0
-1733 -1869 0
-1734 -1870 0
-1735 -1871 0
-1736 -1872 0
-1733 -1977 0
-1734 -1978 0
-1735 -1979 0
-1736 -1980 0
-1733 -1997 0
-1734 -1998 0
-1735 -1999 0
-1736 -2000 0
-1733 -2037 0
-1734 -2038 0
-1735 -2039 0
-1736 -2040 0
-1737 -1841 0
-1738 -1842 0
-1739 -1843 0
-1740 -1844 0
-1737 -1865 0
-1738 -1866 0
-1739 -1867 0
-1740 -1868 0
-1737 -2009 0
-1738 -2010 0
-1739 -2011 0
-1740 -2012 0
-1741 -1837 0
-1742 -1838 0
-1743 -1839 0
-1744 -1840 0
-1741 -1873 0
-1742 -1874 0
-1743 -1875 0
-1744 -1876 0
-1741 -2005 0
-1742 -2006 0
-1743 -2007 0
-1744 -2008 0
-1745 -1845 0
-1746 -1846 0
-1747 -1847 0
-1748 -1848 0
-1745 -2017 0
-1746 -2018 0
-1747 -2019 0
-1748 -2020 0
-1745 -2041 0
-1746 -2042 0
-1747 -2043 0
-1748 -2044 0
-1749 -1841 0
-1750 -1842 0
-1751 -1843 0
-1752 -1844 0
-1749 -1881 0
-1750 -1882 0
-1751 -1883 0
-1752 -1884 0
-1749 -1981 0
-1750 -1982 0
-1751 -1983 0
-1752 -1984 0
-1749 -2013 0
-1750 -2014 0
-1751 -2015 0
-1752 -2016 0
-1749 -2045 0
-1750 -2046 0
-1751 -2047 0
-1752 -2048 0
-1753 -1849 0
-1754 -1850 0
-1755 -1851 0
-1756 -1852 0
-1753 -1877 0
-1754 -1878 0
-1755 -1879 0
-1756 -1880 0
-1753 -2025 0
-1754 -2026 0
-1755 -2027 0
-1756 -2028 0
-1757 -1845 0
-1758 -1846 0
-1759 -1847 0
-1760 -1848 0
-1757 -1889 0
-1758 -1890 0
-1759 -1891 0
-1760 -1892 0
-1757 -2021 0
-1758 -2022 0
-1759 -2023 0
-1760 -2024 0
-1761 -1829 0
-1762 -1830 0
-1763 -1831 0
-1764 -1832 0
-1761 -1885 0
-1762 -1886 0
-1763 -1887 0
-1764 -1888 0
-1761 -1985 0
-1762 -1986 0
-1763 -1987 0
-1764 -1988 0
-1761 -2049 0
-1762 -2050 0
-1763 -2051 0
-1764 -2052 0
-1765 -1781 0
-1766 -1782 0
-1767 -1783 0
-1768 -1784 0
-1765 -1793 0
-1766 -1794 0
-1767 -1795 0
-1768 -1796 0
-1765 -1941 0
-1766 -1942 0
-1767 -1943 0
-1768 -1944 0
-1769 -1789 0
-1770 -1790 0
-1771 -1791 0
-1772 -1792 0
-1769 -1801 0
-1770 -1802 0
-1771 -1803 0
-1772 -1804 0
-1769 -1941 0
-1770 -1942 0
-1771 -1943 0
-1772 -1944 0
-1769 -1945 0
-1770 -1946 0
-1771 -1947 0
-1772 -1948 0
-1769 -2037 0
-1770 -2038 0
-1771 -2039 0
-1772 -2040 0
-1773 -1797 0
-1774 -1798 0
-1775 -1799 0
-1776 -1800 0
-1773 -1809 0
-1774 -1810 0
-1775 -1811 0
-1776 -1812 0
-1773 -1945 0
-1774 -1946 0
-1775 -1947 0
-1776 -1948 0
-1777 -1813 0
-1778 -1814 0
-1779 -1815 0
-1780 -1816 0
-1777 -1825 0
-1778 -1826 0
-1779 -1827 0
-1780 -1828 0
-1777 -1949 0
-1778 -1950 0
-1779 -1951 0
-1780 -1952 0
-1781 -1937 0
-1782 -1938 0
-1783 -1939 0
-1784 -1940 0
-1781 -1989 0
-1782 -1990 0
-1783 -1991 0
-1784 -1992 0
-1781 -2053 0
-1782 -2054 0
-1783 -2055 0
-1784 -2056 0
-1785 -1901 0
-1786 -1902 0
-1787 -1903 0
-1788 -1904 0
-1785 -1985 0
-1786 -1986 0
-1787 -1987 0
-1788 -1988 0
-1785 -2057 0
-1786 -2058 0
-1787 -2059 0
-1788 -2060 0
-1789 -1897 0
-1790 -1898 0
-1791 -1899 0
-1792 -1900 0
-1789 -1997 0
-1790 -1998 0
-1791 -1999 0
-1792 -2000 0
-1789 -2061 0
-1790 -2062 0
-1791 -2063 0
-1792 -2064 0
-1793 -1909 0
-1794 -1910 0
-1795 -1911 0
-1796 -1912 0
-1793 -1993 0
-1794 -1994 0
-1795 -1995 0
-1796 -1996 0
-1793 -2065 0
-1794 -2066 0
-1795 -2067 0
-1796 -2068 0
-1797 -1905 0
-1798 -1906 0
-1799 -1907 0
-1800 -1908 0
-1797 -2005 0
-1798 -2006 0
-1799 -2007 0
-1800 -2008 0
-1797 -2069 0
-1798 -2070 0
-1799 -2071 0
-1800 -2072 0
-1801 -1917 0
-1802 -1918 0
-1803 -1919 0
-1804 -1920 0
-1801 -2001 0
-1802 -2002 0
-1803 -2003 0
-1804 -2004 0
-1801 -2073 0
-1802 -2074 0
-1803 -2075 0
-1804 -2076 0
-1805 -1913 0
-1806 -1914 0
-1807 -1915 0
-1808 -1916 0
-1805 -2013 0
-1806 -2014 0
-1807 -2015 0
-1808 -2016 0
-1805 -2077 0
-1806 -2078 0
-1807 -2079 0
-1808 -2080 0
-1809 -1925 0
-1810 -1926 0
-1811 -1927 0
-1812 -1928 0
-1809 -2009 0
-1810 -2010 0
-1811 -2011 0
-1812 -2012 0
-1809 -2081 0
-1810 -2082 0
-1811 -2083 0
-1812 -2084 0
-1813 -1921 0
-1814 -1922 0
-1815 -1923 0
-1816 -1924 0
-1813 -2021 0
-1814 -2022 0
-1815 -2023 0
-1816 -2024 0
-1813 -2085 0
-1814 -2086 0
-1815 -2087 0
-1816 -2088 0
-1817 -1933 0
-1818 -1934 0
-1819 -1935 0
-1820 -1936 0
-1817 -2017 0
-1818 -2018 0
-1819 -2019 0
-1820 -2020 0
-1817 -2089 0
-1818 -2090 0
-1819 -2091 0
-1820 -2092 0
-1821 -1929 0
-1822 -1930 0
-1823 -1931 0
-1824 -1932 0
-1821 -2029 0
-1822 -2030 0
-1823 -2031 0
-1824 -2032 0
-1821 -2093 0
-1822 -2094 0
-1823 -2095 0
-1824 -2096 0
-1825 -1893 0
-1826 -1894 0
-1827 -1895 0
-1828 -1896 0
-1825 -2025 0
-1826 -2026 0
-1827 -2027 0
-1828 -2028 0
-1825 -2097 0
-1826 -2098 0
-1827 -2099 0
-1828 -2100 0
-1829 -1889 0
-1830 -1890 0
-1831 -1891 0
-1832 -1892 0
-1829 -1953 0
-1830 -1954 0
-1831 -1955 0
-1832 -1956 0
-1829 -2033 0
-1830 -2034 0
-1831 -2035 0
-1832 -2036 0
-1829 -2053 0
-1830 -2054 0
-1831 -2055 0
-1832 -2056 0
-1829 -2057 0
-1830 -2058 0
-1831 -2059 0
-1832 -2060 0
-1833 -1857 0
-1834 -1858 0
-1835 -1859 0
-1836 -1860 0
-1833 -1865 0
-1834 -1866 0
-1835 -1867 0
-1836 -1868 0
-1833 -1953 0
-1834 -1954 0
-1835 -1955 0
-1836 -1956 0
-1833 -1957 0
-1834 -1958 0
-1835 -1959 0
-1836 -1960 0
-1833 -2061 0
-1834 -2062 0
-1835 -2063 0
-1836 -2064 0
-1833 -2065 0
-1834 -2066 0
-1835 -2067 0
-1836 -2068 0
-1837 -1861 0
-1838 -1862 0
-1839 -1863 0
-1840 -1864 0
-1837 -1957 0
-1838 -1958 0
-1839 -1959 0
-1840 -1960 0
-1837 -1961 0
-1838 -1962 0
-1839 -1963 0
-1840 -1964 0
-1837 -2037 0
-1838 -2038 0
-1839 -2039 0
-1840 -2040 0
-1837 -2069 0
-1838 -2070 0
-1839 -2071 0
-1840 -2072 0
-1837 -2073 0
-1838 -2074 0
-1839 -2075 0
-1840 -2076 0
-1841 -1869 0
-1842 -1870 0
-1843 -1871 0
-1844 -1872 0
-1841 -1877 0
-1842 -1878 0
-1843 -1879 0
-1844 -1880 0
-1841 -1961 0
-1842 -1962 0
-1843 -1963 0
-1844 -1964 0
-1841 -1965 0
-1842 -1966 0
-1843 -1967 0
-1844 -1968 0
-1841 -2041 0
-1842 -2042 0
-1843 -2043 0
-1844 -2044 0
-1841 -2077 0
-1842 -2078 0
-1843 -2079 0
-1844 -2080 0
-1841 -2081 0
-1842 -2082 0
-1843 -2083 0
-1844 -2084 0
-1845 -1873 0
-1846 -1874 0
-1847 -1875 0
-1848 -1876 0
-1845 -1885 0
-1846 -1886 0
-1847 -1887 0
-1848 -1888 0
-1845 -1965 0
-1846 -1966 0
-1847 -1967 0
-1848 -1968 0
-1845 -1969 0
-1846 -1970 0
-1847 -1971 0
-1848 -1972 0
-1845 -2045 0
-1846 -2046 0
-1847 -2047 0
-1848 -2048 0
-1845 -2085 0
-1846 -2086 0
-1847 -2087 0
-1848 -2088 0
-1845 -2089 0
-1846 -2090 0
-1847 -2091 0
-1848 -2092 0
-1849 -1853 0
-1850 -1854 0
-1851 -1855 0
-1852 -1856 0
-1849 -1881 0
-1850 -1882 0
-1851 -1883 0
-1852 -1884 0
-1849 -1969 0
-1850 -1970 0
-1851 -1971 0
-1852 -1972 0
-1849 -2049 0
-1850 -2050 0
-1851 -2051 0
-1852 -2052 0
-1849 -2093 0
-1850 -2094 0
-1851 -2095 0
-1852 -2096 0
-1849 -2097 0
-1850 -2098 0
-1851 -2099 0
-1852 -2100 0
-1853 -1897 0
-1854 -1898 0
-1855 -1899 0
-1856 -1900 0
-1853 -2049 0
-1854 -2050 0
-1855 -2051 0
-1856 -2052 0
-1853 -2053 0
-1854 -2054 0
-1855 -2055 0
-1856 -2056 0
-1857 -1893 0
-1858 -1894 0
-1859 -1895 0
-1860 -1896 0
-1857 -1973 0
-1858 -1974 0
-1859 -1975 0
-1860 -1976 0
-1857 -2057 0
-1858 -2058 0
-1859 -2059 0
-1860 -2060 0
-1861 -1901 0
-1862 -1902 0
-1863 -1903 0
-1864 -1904 0
-1861 -1973 0
-1862 -1974 0
-1863 -1975 0
-1864 -1976 0
-1861 -2037 0
-1862 -2038 0
-1863 -2039 0
-1864 -2040 0
-1861 -2065 0
-1862 -2066 0
-1863 -2067 0
-1864 -2068 0
-1865 -1913 0
-1866 -1914 0
-1867 -1915 0
-1868 -1916 0
-1865 -1977 0
-1866 -1978 0
-1867 -1979 0
-1868 -1980 0
-1865 -2069 0
-1866 -2070 0
-1867 -2071 0
-1868 -2072 0
-1869 -1909 0
-1870 -1910 0
-1871 -1911 0
-1872 -1912 0
-1869 -2073 0
-1870 -2074 0
-1871 -2075 0
-1872 -2076 0
-1873 -1917 0
-1874 -1918 0
-1875 -1919 0
-1876 -1920 0
-1873 -2045 0
-1874 -2046 0
-1875 -2047 0
-1876 -2048 0
-1873 -2081 0
-1874 -2082 0
-1875 -2083 0
-1876 -2084 0
-1877 -1929 0
-1878 -1930 0
-1879 -1931 0
-1880 -1932 0
-1877 -1981 0
-1878 -1982 0
-1879 -1983 0
-1880 -1984 0
-1877 -2041 0
-1878 -2042 0
-1879 -2043 0
-1880 -2044 0
-1877 -2085 0
-1878 -2086 0
-1879 -2087 0
-1880 -2088 0
-1881 -1925 0
-1882 -1926 0
-1883 -1927 0
-1884 -1928 0
-1881 -2089 0
-1882 -2090 0
-1883 -2091 0
-1884 -2092 0
-1885 -1937 0
-1886 -1938 0
-1887 -1939 0
-1888 -1940 0
-1885 -1981 0
-1886 -1982 0
-1887 -1983 0
-1888 -1984 0
-1885 -2093 0
-1886 -2094 0
-1887 -2095 0
-1888 -2096 0
-1889 -1933 0
-1890 -1934 0
-1891 -1935 0
-1892 -1936 0
-1889 -2033 0
-1890 -2034 0
-1891 -2035 0
-1892 -2036 0
-1889 -2097 0
-1890 -2098 0
-1891 -2099 0
-1892 -2100 0
-1893 -1937 0
-1894 -1938 0
-1895 -1939 0
-1896 -1940 0
-1893 -1989 0
-1894 -1990 0
-1895 -1991 0
-1896 -1992 0
-1893 -2029 0
-1894 -2030 0
-1895 -2031 0
-1896 -2032 0
-1893 -2057 0
-1894 -2058 0
-1895 -2059 0
-1896 -2060 0
-1897 -1901 0
-1898 -1902 0
-1899 -1903 0
-1900 -1904 0
-1897 -1985 0
-1898 -1986 0
-1899 -1987 0
-1900 -1988 0
-1897 -1993 0
-1898 -1994 0
-1899 -1995 0
-1900 -1996 0
-1897 -2053 0
-1898 -2054 0
-1899 -2055 0
-1900 -2056 0
-1901 -1989 0
-1902 -1990 0
-1903 -1991 0
-1904 -1992 0
-1901 -1997 0
-1902 -1998 0
-1903 -1999 0
-1904 -2000 0
-1901 -2065 0
-1902 -2066 0
-1903 -2067 0
-1904 -2068 0
-1905 -1909 0
-1906 -1910 0
-1907 -1911 0
-1908 -1912 0
-1905 -1993 0
-1906 -1994 0
-1907 -1995 0
-1908 -1996 0
-1905 -2001 0
-1906 -2002 0
-1907 -2003 0
-1908 -2004 0
-1905 -2061 0
-1906 -2062 0
-1907 -2063 0
-1908 -2064 0
-1909 -1997 0
-1910 -1998 0
-1911 -1999 0
-1912 -2000 0
-1909 -2005 0
-1910 -2006 0
-1911 -2007 0
-1912 -2008 0
-1909 -2073 0
-1910 -2074 0
-1911 -2075 0
-1912 -2076 0
-1913 -1917 0
-1914 -1918 0
-1915 -1919 0
-1916 -1920 0
-1913 -2001 0
-1914 -2002 0
-1915 -2003 0
-1916 -2004 0
-1913 -2009 0
-1914 -2010 0
-1915 -2011 0
-1916 -2012 0
-1913 -2069 0
-1914 -2070 0
-1915 -2071 0
-1916 -2072 0
-1917 -2005 0
-1918 -2006 0
-1919 -2007 0
-1920 -2008 0
-1917 -2013 0
-1918 -2014 0
-1919 -2015 0
-1920 -2016 0
-1917 -2081 0
-1918 -2082 0
-1919 -2083 0
-1920 -2084 0
-1921 -1925 0
-1922 -1926 0
-1923 -1927 0
-1924 -1928 0
-1921 -2009 0
-1922 -2010 0
-1923 -2011 0
-1924 -2012 0
-1921 -2017 0
-1922 -2018 0
-1923 -2019 0
-1924 -2020 0
-1921 -2077 0
-1922 -2078 0
-1923 -2079 0
-1924 -2080 0
-1925 -2013 0
-1926 -2014 0
-1927 -2015 0
-1928 -2016 0
-1925 -2021 0
-1926 -2022 0
-1927 -2023 0
-1928 -2024 0
-1925 -2089 0
-1926 -2090 0
-1927 -2091 0
-1928 -2092 0
-1929 -1933 0
-1930 -1934 0
-1931 -1935 0
-1932 -1936 0
-1929 -2017 0
-1930 -2018 0
-1931 -2019 0
-1932 -2020 0
-1929 -2025 0
-1930 -2026 0
-1931 -2027 0
-1932 -2028 0
-1929 -2085 0
-1930 -2086 0
-1931 -2087 0
-1932 -2088 0
-1933 -2021 0
-1934 -2022 0
-1935 -2023 0
-1936 -2024 0
-1933 -2029 0
-1934 -2030 0
-1935 -2031 0
-1936 -2032 0
-1933 -2097 0
-1934 -2098 0
-1935 -2099 0
-1936 -2100 0
-1937 -1985 0
-1938 -1986 0
-1939 -1987 0
-1940 -1988 0
-1937 -2025 0
-1938 -2026 0
-1939 -2027 0
-1940 -2028 0
-1937 -2093 0
-1938 -2094 0
-1939 -2095 0
-1940 -2096 0
-1941 -1953 0
-1942 -1954 0
-1943 -1955 0
-1944 -1956 0
-1941 -1957 0
-1942 -1958 0
-1943 -1959 0
-1944 -1960 0
-1945 -1957 0
-1946 -1958 0
-1947 -1959 0
-1948 -1960 0
-1945 -1961 0
-1946 -1962 0
-1947 -1963 0
-1948 -1964 0
-1949 -1965 0
-1950 -1966 0
-1951 -1967 0
-1952 -1968 0
-1949 -1969 0
-1950 -1970 0
-1951 -1971 0
-1952 -1972 0
-1953 -2057 0
-1954 -2058 0
-1955 -2059 0
-1956 -2060 0
-1953 -2061 0
-1954 -2062 0
-1955 -2063 0
-1956 -2064 0
-1957 -2065 0
-1958 -2066 0
-1959 -2067 0
-1960 -2068 0
-1957 -2069 0
-1958 -2070 0
-1959 -2071 0
-1960 -2072 0
-1961 -2073 0
-1962 -2074 0
-1963 -2075 0
-1964 -2076 0
-1961 -2077 0
-1962 -2078 0
-1963 -2079 0
-1964 -2080 0
-1965 -2081 0
-1966 -2082 0
-1967 -2083 0
-1968 -2084 0
-1965 -2085 0
-1966 -2086 0
-1967 -2087 0
-1968 -2088 0
-1969 -2089 0
-1970 -2090 0
-1971 -2091 0
-1972 -2092 0
-1969 -2093 0
-1970 -2094 0
-1971 -2095 0
-1972 -2096 0
-1977 -2037 0
-1978 -2038 0
-1979 -2039 0
-1980 -2040 0
-1981 -2045 0
-1982 -2046 0
-1983 -2047 0
-1984 -2048 0
-1985 -2049 0
-1986 -2050 0
-1987 -2051 0
-1988 -2052 0
-1985 -2057 0
-1986 -2058 0
-1987 -2059 0
-1988 -2060 0
-1989 -2053 0
-1990 -2054 0
-1991 -2055 0
-1992 -2056 0
-1993 -2065 0
-1994 -2066 0
-1995 -2067 0
-1996 -2068 0
-1997 -2037 0
-1998 -2038 0
-1999 -2039 0
-2000 -2040 0
-1997 -2061 0
-1998 -2062 0
-1999 -2063 0
-2000 -2064 0
-2001 -2073 0
-2002 -2074 0
-2003 -2075 0
-2004 -2076 0
-2005 -2069 0
-2006 -2070 0
-2007 -2071 0
-2008 -2072 0
-2009 -2081 0
-2010 -2082 0
-2011 -2083 0
-2012 -2084 0
-2013 -2045 0
-2014 -2046 0
-2015 -2047 0
-2016 -2048 0
-2013 -2077 0
-2014 -2078 0
-2015 -2079 0
-2016 -2080 0
-2017 -2041 0
-2018 -2042 0
-2019 -2043 0
-2020 -2044 0
-2017 -2089 0
-2018 -2090 0
-2019 -2091 0
-2020 -2092 0
-2021 -2085 0
-2022 -2086 0
-2023 -2087 0
-2024 -2088 0
-2025 -2097 0
-2026 -2098 0
-2027 -2099 0
-2028 -2100 0
-2029 -2033 0
-2030 -2034 0
-2031 -2035 0
-2032 -2036 0
-2029 -2093 0
-2030 -2094 0
-2031 -2095 0
-2032 -2096 0
-2033 -2049 0
-2034 -2050 0
-2035 -2051 0
-2036 -2052 0
-2033 -2057 0
-2034 -2058 0
-2035 -2059 0
-2036 -2060 0
-2037 -2073 0
-2038 -2074 0
-2039 -2075 0
-2040 -2076 0
-2041 -2045 0
-2042 -2046 0
-2043 -2047 0
-2044 -2048 0
-2041 -2077 0
-2042 -2078 0
-2043 -2079 0
-2044 -2080 0
-2045 -2089 0
-2046 -2090 0
-2047 -2091 0
-2048 -2092 0
-2049 -2093 0
-2050 -2094 0
-2051 -2095 0
-2052 -2096 0
